Node Number	Equivalent (von-Mises) Stress (Pa)
1	1.003e+006
1	1.1461e+006
2	5.222e+005
2	1.1925e+006
3	5.7577e+005
3	8.0118e+005
4	6.9005e+005
4	4.3882e+005
5	81734
5	92814
6	1.123e+005
6	1.2162e+005
7	4.8592e+005
7	7.0251e+005
8	43261
8	19541
9	3.6128e+005
9	5.4982e+005
10	3.1081e+005
10	3.3355e+005
11	7.7542e+005
11	1.1552e+006
12	4.8535e+005
12	9.3088e+005
13	3.2012e+005
13	3.3831e+005
14	1.8566e+005
14	1.5867e+005
15	64332
15	1.2062e+005
16	60532
16	77579
17	1.0736e+005
17	1.8146e+005
18	50282
18	81709
19	2.1908e+005
19	4.9201e+005
20	2.1821e+005
20	3.5167e+005
21	5.9782e+005
21	6.17e+005
22	2.511e+005
22	9.7838e+005
23	1.5271e+005
23	3.6864e+005
24	1.8476e+005
24	3.78e+005
25	4.0973e+005
25	6.4292e+005
26	1.5854e+005
26	3.935e+005
27	4.2064e+005
27	2.7428e+005
28	1.6598e+005
28	3.1464e+005
29	1.2911e+006
29	1.6795e+006
30	6.3608e+005
30	2.2528e+006
31	1.6865e+006
31	1.2187e+006
32	1.0419e+006
32	1.148e+006
33	8.6071e+005
33	1.2039e+006
34	5.9497e+005
34	1.07e+006
35	1.0109e+006
35	1.2694e+006
36	7.8453e+005
36	1.5504e+006
37	1.2794e+006
37	1.3789e+006
38	2.5167e+006
38	6.8676e+005
39	3.2015e+006
39	2.2407e+006
40	2.5319e+006
40	1.8267e+006
41	3.3947e+006
41	1.9295e+006
42	1.1071e+006
42	6.3484e+005
43	9.7252e+005
43	1.4684e+006
44	1.4796e+006
44	2.5101e+006
45	2.2237e+006
45	2.6444e+006
46	1.9485e+006
46	1.0196e+006
47	2.5221e+006
47	1.418e+006
48	2.1139e+006
48	4.9245e+005
49	2.8264e+006
49	1.4954e+006
50	1.6265e+006
50	8.7862e+005
51	9.4291e+005
51	1.7621e+006
52	2.3042e+006
52	1.4453e+006
53	2.298e+006
53	1.0688e+006
54	2.2767e+006
54	5.1917e+005
55	1.3748e+006
55	1.5341e+006
56	2.0253e+006
56	5.9785e+005
57	2.2807e+006
57	9.5205e+005
58	1.7732e+006
58	4.3095e+005
59	2.2407e+006
59	9.2193e+005
60	1.4714e+006
60	1.8022e+006
61	1.7825e+006
61	2.4439e+006
62	1.3198e+006
62	2.366e+006
63	2.7555e+006
63	2.7046e+006
64	2.129e+006
64	1.2182e+006
65	2.7469e+006
65	1.902e+006
66	3.2879e+006
66	1.6889e+006
67	2.3571e+006
67	1.6523e+006
68	1.9695e+006
68	1.8744e+006
69	1.4039e+006
69	2.4424e+006
70	1.3653e+006
70	8.9993e+005
71	1.6325e+006
71	6.4559e+005
72	1.519e+006
72	7.3711e+005
73	9.6387e+005
73	1.1013e+006
74	1.2187e+006
74	1.4769e+006
75	6.7583e+005
75	8.9004e+005
76	5.2726e+005
76	1.005e+006
77	5.4222e+005
77	1.3653e+006
78	9.2739e+005
78	1.1092e+006
79	8.6957e+005
79	1.153e+006
80	9.4665e+005
80	7.117e+005
81	9.3116e+005
81	1.5076e+006
82	7.7061e+005
82	1.2325e+006
83	1.7466e+006
83	1.0265e+006
84	1.0213e+006
84	1.5781e+006
85	8.4222e+005
85	2.1782e+006
86	1.0876e+006
86	3.1782e+006
87	7.1207e+005
87	1.6438e+006
88	1.0796e+006
88	7.987e+005
89	1.6862e+006
89	6.2727e+005
90	1.7698e+006
90	1.2458e+006
91	9.9384e+005
91	8.9856e+005
92	2.4405e+006
92	8.4823e+005
93	1.333e+006
93	6.9579e+005
94	9.1687e+005
94	9.7192e+005
95	1.8646e+006
95	1.7655e+006
96	1.6503e+006
96	2.0208e+006
97	1.2216e+006
97	2.2124e+006
98	1.1276e+006
98	2.0981e+006
99	2.151e+006
99	2.7178e+006
100	2.0117e+006
100	2.9011e+006
101	1.9029e+006
101	1.2151e+006
102	2.8761e+006
102	2.4403e+006
103	3.1557e+006
103	2.2393e+006
104	4.5247e+006
104	2.4509e+006
105	1.4245e+006
105	1.6757e+006
106	4.3948e+006
106	3.3627e+006
107	4.5753e+006
107	2.8106e+006
108	2.3403e+006
108	2.8663e+006
109	3.2869e+006
109	3.2994e+006
110	4.563e+006
110	3.0834e+006
111	4.9348e+006
111	3.5262e+006
112	3.191e+006
112	2.6839e+006
113	4.3438e+006
113	4.7757e+006
114	3.013e+006
114	1.1074e+006
115	3.609e+006
115	3.2307e+006
116	5.9729e+006
116	4.0897e+006
117	6.7257e+006
117	5.7811e+006
118	2.9753e+006
118	1.8268e+006
119	1.4419e+006
119	2.686e+006
120	2.6976e+006
120	4.3228e+006
121	7.1038e+006
121	5.4301e+006
122	3.0966e+006
122	2.7854e+006
123	5.859e+006
123	5.5141e+006
124	5.9508e+006
124	5.0541e+006
125	3.4346e+006
125	3.3167e+006
126	1.4605e+006
126	3.2537e+006
127	2.4949e+006
127	2.8728e+006
128	5.8477e+006
128	2.9497e+006
129	3.4155e+006
129	3.3104e+006
130	3.8018e+006
130	4.474e+006
131	3.9983e+006
131	5.4026e+006
132	7.5801e+006
132	3.6643e+006
133	3.9976e+006
133	4.2451e+006
134	7.1e+006
134	5.5084e+006
135	7.2111e+006
135	3.7361e+006
136	3.5902e+006
136	5.1222e+006
137	2.6935e+006
137	3.3165e+006
138	4.3301e+006
138	5.4336e+006
139	4.1898e+006
139	3.8758e+006
140	4.3963e+006
140	3.8019e+006
141	4.2012e+006
141	5.5506e+006
142	3.3021e+006
142	2.9888e+006
143	2.7052e+006
143	3.7827e+006
144	2.3398e+006
144	2.1428e+006
145	3.3974e+006
145	2.7326e+006
146	1.141e+006
146	2.4635e+006
147	3.2588e+006
147	2.984e+006
148	4.1878e+006
148	4.5133e+006
149	3.1088e+006
149	2.9815e+006
150	4.4346e+006
150	6.4114e+006
151	3.5606e+006
151	6.0589e+006
152	1.3974e+006
152	8.4454e+005
153	1.0561e+006
153	1.1658e+006
154	1.6199e+006
154	1.0325e+006
155	3.0723e+006
155	1.6368e+006
156	1.681e+006
156	1.4549e+006
157	1.5073e+006
157	1.0717e+006
158	1.1725e+006
158	1.0115e+006
159	2.7587e+006
159	3.1605e+006
160	2.3089e+006
160	2.4895e+006
161	1.1098e+006
161	9.6001e+005
162	2.3723e+006
162	1.979e+006
163	1.2502e+006
163	6.2096e+005
164	1.1775e+006
164	8.0933e+005
165	1.6648e+006
165	1.6244e+006
166	3.0451e+006
166	3.4398e+006
167	3.2981e+006
167	4.4486e+006
168	3.6594e+006
168	4.4231e+006
169	1.1079e+006
169	1.0133e+006
170	2.3401e+006
170	1.3266e+006
171	9.8066e+005
171	7.9837e+005
172	2.0437e+006
172	1.3464e+006
173	1.7292e+006
173	2.5403e+006
174	1.2278e+006
174	1.4461e+006
175	1.3736e+006
175	2.7683e+006
176	4.4986e+006
176	2.5286e+006
177	9.5146e+005
177	2.8943e+006
178	5.5045e+006
178	1.7641e+006
179	1.2863e+006
179	2.5711e+006
180	1.7479e+006
180	1.5362e+006
181	1.8243e+006
181	4.8956e+006
182	1.9858e+006
182	9.1681e+005
183	1.1969e+006
183	7.0639e+006
184	1.3901e+006
184	2.1064e+006
185	4.0213e+006
185	3.3223e+006
186	3.3434e+006
186	3.6503e+006
187	5.7498e+006
187	6.3672e+006
188	4.1981e+006
188	6.3398e+006
189	1.6012e+005
189	1.6917e+005
190	1.1914e+005
190	1.2502e+005
191	1.2786e+005
191	1.347e+005
192	1.0038e+005
192	1.0443e+005
193	4.5897e+005
193	3.9021e+005
194	38327
194	77093
195	6.7211e+005
195	4.4048e+005
196	6.7465e+005
196	5.5484e+005
197	8.6057e+005
197	7.5958e+005
198	9.8104e+005
198	9.8139e+005
199	1.0625e+006
199	1.1552e+006
200	6.5708e+005
200	5.7492e+005
201	9.1071e+005
201	3.8721e+005
202	1.1789e+006
202	9.28e+005
203	6.891e+005
203	8.51e+005
204	1.9706e+006
204	1.8024e+006
205	2.3668e+006
205	2.0573e+006
206	1.0584e+006
206	1.8272e+006
207	2.6007e+006
207	3.2276e+006
208	2.0952e+006
208	2.7321e+006
209	6.4695e+005
209	1.53e+006
210	2.4092e+006
210	8.3505e+005
211	2.1078e+006
211	8.7483e+005
212	2.3133e+006
212	7.314e+005
213	2.656e+005
213	4.5094e+005
214	2.9642e+005
214	3.2278e+005
215	8.1271e+005
215	8.3217e+005
216	4.2782e+005
216	5.0174e+005
217	55845
217	80877
218	2.5843e+006
218	2.5898e+006
219	2.2927e+006
219	2.8862e+006
220	3.8667e+006
220	3.5317e+006
221	2.0654e+006
221	3.7006e+006
222	3.9539e+006
222	3.3976e+006
223	2.5352e+006
223	2.5293e+006
224	3.0853e+006
224	2.9597e+006
225	1.913e+006
225	2.3537e+006
226	3.3361e+006
226	2.6577e+006
227	2.3369e+006
227	1.4736e+006
228	2.426e+006
228	3.7921e+006
229	2.8192e+006
229	2.9572e+006
230	5.7964e+005
230	1.3088e+006
231	3.6262e+006
231	3.269e+006
232	1.3064e+006
232	2.7313e+006
233	3.7447e+006
233	1.2629e+006
234	3.1096e+006
234	3.6198e+006
235	3.1421e+006
235	4.4152e+006
236	1.9182e+006
236	8.6635e+005
237	3.5956e+006
237	2.8527e+006
238	5.0089e+006
238	4.1225e+006
239	4.2103e+006
239	2.2662e+006
240	3.0953e+006
240	2.6277e+006
241	4.0178e+006
241	3.7742e+006
242	3.2364e+006
242	2.8673e+006
243	4.8948e+006
243	4.0202e+006
244	2.9565e+006
244	2.8368e+006
245	3.6051e+006
245	4.443e+006
246	3.8984e+006
246	4.9211e+006
247	2.5785e+006
247	5.2143e+006
248	1.1735e+006
248	2.4664e+006
249	2.5908e+006
249	3.4318e+006
250	3.9763e+006
250	3.4367e+006
251	2.2573e+006
251	8.5862e+005
252	4.4237e+006
252	2.2848e+006
253	8.7144e+006
253	4.0617e+006
254	4.4589e+006
254	1.5182e+006
255	4.1348e+006
255	2.1496e+006
256	1.4894e+006
256	1.7241e+006
257	3.2679e+006
257	3.7361e+006
258	5.5267e+006
258	3.4401e+006
259	3.7695e+006
259	3.0382e+006
260	3.2372e+006
260	4.4176e+006
261	3.6876e+006
261	4.5468e+006
262	4.4608e+006
262	5.8141e+006
263	3.4767e+006
263	4.7135e+006
264	3.5648e+006
264	4.2137e+006
265	3.6305e+006
265	4.726e+006
266	6.8326e+006
266	4.1027e+006
267	3.4053e+006
267	2.0338e+006
268	5.7838e+006
268	3.9675e+006
269	4.0868e+006
269	2.1951e+006
270	5.0151e+006
270	4.4986e+006
271	4.8003e+006
271	4.8796e+006
272	3.3581e+006
272	3.352e+006
273	3.6122e+006
273	3.9626e+006
274	1.3232e+006
274	1.7574e+006
275	2.6591e+006
275	2.6268e+006
276	4.1342e+006
276	4.3295e+006
277	3.0792e+006
277	3.3004e+006
278	4.3334e+006
278	7.5997e+006
279	4.4648e+006
279	4.3596e+006
280	3.5145e+006
280	3.1393e+006
281	3.0249e+006
281	2.5152e+006
282	4.3014e+006
282	2.9244e+006
283	4.7109e+006
283	4.2319e+006
284	4.4298e+006
284	4.4051e+006
285	2.9308e+006
285	3.9312e+006
286	4.7707e+006
286	4.4959e+006
287	3.4432e+006
287	3.5543e+006
288	6.3902e+006
288	4.8947e+006
289	6.586e+005
289	5.2181e+005
290	8.604e+005
290	2.8166e+005
291	6.8432e+005
291	2.578e+005
292	3.1273e+006
292	2.3082e+006
293	2.8787e+006
293	2.7489e+006
294	3.8578e+005
294	8.9953e+005
295	2.2428e+006
295	2.29e+006
296	8.2587e+005
296	9.1537e+005
297	1.9412e+006
297	1.1263e+006
298	1.4912e+006
298	1.629e+006
299	3.1995e+006
299	3.5489e+006
300	3.2521e+006
300	4.6104e+006
301	3.7355e+006
301	4.6479e+006
302	2.2262e+006
302	9.4947e+005
303	3.061e+006
303	2.3911e+006
304	1.0505e+006
304	9.1461e+005
305	2.5605e+006
305	7.5838e+005
306	2.2468e+006
306	2.2943e+006
307	2.3158e+006
307	6.3574e+005
308	7.1277e+005
308	2.596e+006
309	1.0826e+006
309	1.4175e+006
310	1.7962e+006
310	2.4105e+006
311	1.8435e+006
311	2.1143e+006
312	1.9201e+006
312	2.7811e+006
313	9.6433e+005
313	1.3237e+006
314	2.1828e+006
314	2.4893e+006
315	2.1145e+006
315	1.55e+006
316	7.1971e+005
316	5.4661e+005
317	2.0383e+006
317	1.2246e+006
318	3.653e+006
318	2.4922e+006
319	4.9184e+006
319	4.298e+006
320	87719
320	1.5428e+005
321	1.5893e+005
321	1.4069e+005
322	1.5552e+005
322	2.4035e+005
323	86600
323	98954
324	1.02e+005
324	1.0318e+005
325	1.1705e+005
325	3.2298e+005
326	1.561e+005
326	1.2152e+005
327	2.7412e+005
327	4.1133e+005
328	9.5147e+005
328	1.147e+006
329	7.91e+005
329	5.949e+005
330	1.8996e+006
330	2.0618e+006
331	1.7127e+006
331	1.3938e+006
332	1.3557e+006
332	1.3326e+006
333	1.863e+006
333	1.1247e+006
334	1.027e+006
334	9.3637e+005
335	9.7445e+005
335	5.5728e+005
336	1.3401e+006
336	1.4489e+006
337	2.0529e+006
337	1.7739e+006
338	3.5334e+006
338	2.3479e+006
339	2.1313e+006
339	1.717e+006
340	1.1956e+006
340	1.0137e+006
341	6.9869e+005
341	1.2928e+006
342	1.0703e+006
342	1.0385e+006
343	7.1683e+005
343	6.1953e+005
344	9.3926e+005
344	1.6744e+006
345	8.4663e+005
345	1.4009e+006
346	8.0379e+005
346	1.0243e+006
347	3.1347e+005
347	2.68e+005
348	3.9328e+005
348	5.6849e+005
349	5.4436e+005
349	2.7954e+005
350	79746
350	70487
351	1.2293e+006
351	2.3399e+006
352	1.0676e+006
352	2.1838e+006
353	2.5987e+006
353	3.0183e+006
354	8.3381e+005
354	7.6628e+005
355	9.2848e+005
355	1.6337e+006
356	3.364e+006
356	4.5964e+005
357	2.5767e+006
357	3.3083e+006
358	2.0385e+006
358	3.3201e+006
359	1.1879e+006
359	1.0617e+006
360	2.8633e+006
360	2.156e+006
361	3.2394e+006
361	4.2369e+006
362	2.8133e+006
362	1.6009e+006
363	3.3977e+006
363	4.5356e+006
364	8.9122e+005
364	1.5308e+006
365	3.2025e+006
365	2.4316e+006
366	2.7705e+006
366	1.4672e+006
367	4.5032e+006
367	2.2018e+006
368	2.0564e+006
368	3.2416e+006
369	2.2099e+006
369	2.8937e+006
370	2.3613e+006
370	4.321e+006
371	1.9076e+006
371	9.9319e+005
372	2.1832e+006
372	2.377e+006
373	2.3815e+006
373	4.0178e+006
374	9.7913e+005
374	2.5172e+006
375	1.2245e+006
375	3.6147e+006
376	2.2348e+006
376	3.0987e+006
377	1.3436e+006
377	4.4172e+006
378	2.2013e+006
378	2.0526e+006
379	2.9501e+006
379	3.6023e+006
380	4.9889e+006
380	3.6074e+006
381	3.8668e+006
381	3.3093e+006
382	2.7143e+006
382	4.9237e+006
383	3.7111e+006
383	3.3797e+006
384	5.3763e+006
384	4.4992e+006
385	4.0753e+006
385	7.2708e+006
386	6.454e+006
386	4.1065e+006
387	4.4486e+006
387	3.8016e+006
388	4.5307e+006
388	4.5483e+006
389	2.65e+006
389	3.5164e+006
390	4.1785e+006
390	3.9951e+006
391	3.7508e+006
391	3.1855e+006
392	4.8276e+006
392	5.5847e+006
393	1.2824e+006
393	3.5436e+006
394	4.5569e+006
394	7.6357e+006
395	1.6958e+006
395	3.2288e+006
396	2.3655e+006
396	3.4267e+006
397	2.9532e+006
397	2.8162e+006
398	4.3224e+006
398	5.0534e+006
399	8.4076e+006
399	5.562e+006
400	5.4369e+006
400	3.886e+006
401	1.4363e+006
401	3.5564e+006
402	2.7904e+006
402	4.4845e+006
403	2.8598e+006
403	3.9359e+006
404	3.8422e+006
404	5.6432e+006
405	4.083e+006
405	5.459e+006
406	2.4984e+006
406	2.9979e+006
407	2.9125e+006
407	2.8924e+006
408	2.6298e+006
408	5.8516e+006
409	3.9805e+006
409	5.4215e+006
410	1.1076e+006
410	2.0862e+006
411	3.5628e+006
411	3.5143e+006
412	2.5783e+006
412	3.3387e+006
413	3.1972e+006
413	3.2523e+006
414	3.9432e+005
414	2.4621e+006
415	1.9843e+006
415	2.7033e+006
416	8.1059e+005
416	1.0858e+006
417	1.8035e+006
417	2.8479e+006
418	3.7119e+006
418	3.7806e+006
419	7.1109e+006
419	4.7609e+006
420	3.965e+006
420	3.7985e+006
421	1.4224e+006
421	7.3973e+005
422	1.8047e+006
422	1.8061e+006
423	1.7572e+006
423	1.5992e+006
424	2.1046e+006
424	1.5554e+006
425	1.8925e+006
425	1.1858e+006
426	2.1632e+006
426	2.5511e+006
427	4.1512e+006
427	2.2458e+006
428	2.2898e+006
428	2.6403e+006
429	3.2601e+006
429	2.9048e+006
430	2.0275e+006
430	1.8761e+006
431	1.1879e+006
431	2.1407e+006
432	5.6609e+005
432	1.4249e+006
433	1.0648e+006
433	2.1515e+006
434	2.0336e+006
434	2.3738e+006
435	2.0619e+006
435	7.5994e+005
436	1.6688e+006
436	1.8325e+006
437	3.0709e+006
437	1.2259e+006
438	2.3789e+006
438	2.1387e+006
439	3.8352e+006
439	2.4934e+006
440	4.0415e+005
440	1.3564e+006
441	2.5401e+005
441	5.9686e+005
442	6.6893e+005
442	1.1442e+006
443	94658
443	93772
444	96624
444	87484
445	77391
445	69701
446	85855
446	1.3933e+005
447	99970
447	1.205e+005
448	70669
448	90823
449	1.6356e+005
449	3.3147e+005
450	3.7006e+005
450	2.5539e+005
451	9.4625e+005
451	2.1672e+006
452	1.7369e+006
452	2.0476e+006
453	1.0671e+006
453	1.1489e+006
454	8.1952e+005
454	9.3645e+005
455	1.4817e+006
455	9.7085e+005
456	1.0194e+006
456	7.315e+005
457	8.7752e+005
457	5.8793e+005
458	1.7263e+006
458	1.7486e+006
459	6.6161e+005
459	9.8767e+005
460	1.0583e+006
460	6.562e+005
461	1.0533e+006
461	1.4703e+006
462	2.0414e+006
462	1.8508e+006
463	1.9251e+006
463	1.0851e+006
464	1.4016e+006
464	1.0813e+006
465	2.4468e+006
465	1.9316e+006
466	1.3512e+006
466	1.7741e+006
467	1.344e+006
467	1.0635e+006
468	1.2707e+006
468	2.2292e+006
469	1.7452e+006
469	1.8124e+006
470	8.9126e+005
470	8.2985e+005
471	4.683e+005
471	6.0837e+005
472	2.0729e+006
472	1.9436e+006
473	8.4494e+005
473	4.458e+005
474	8.1413e+005
474	4.7691e+005
475	8.7426e+005
475	5.5588e+005
476	2.2386e+005
476	3.9995e+005
477	9.1618e+005
477	6.5515e+005
478	3.3459e+005
478	2.7433e+005
479	4.1677e+005
479	7.0225e+005
480	41470
480	76332
481	5.4722e+006
481	3.2558e+006
482	3.4943e+006
482	2.7331e+006
483	4.13e+006
483	1.9277e+006
484	1.9115e+006
484	2.3415e+006
485	2.5663e+006
485	2.5769e+006
486	8.0753e+005
486	2.7086e+006
487	3.0088e+006
487	2.7775e+006
488	2.1577e+005
488	8.4064e+005
489	9.9228e+005
489	1.8298e+006
490	1.7969e+006
490	2.095e+006
491	2.984e+006
491	2.7905e+006
492	2.9374e+006
492	3.0236e+006
493	7.0415e+005
493	1.4674e+006
494	1.6002e+006
494	1.7588e+006
495	2.6645e+006
495	1.8858e+006
496	3.3671e+006
496	3.4954e+006
497	2.591e+006
497	3.9135e+006
498	2.2531e+006
498	5.205e+006
499	2.2619e+006
499	3.1158e+006
500	3.2125e+006
500	3.7365e+006
501	4.0604e+006
501	2.5107e+006
502	3.9285e+006
502	4.031e+006
503	1.9121e+006
503	3.0529e+006
504	3.1975e+006
504	4.1121e+006
505	8.5673e+005
505	9.8821e+005
506	1.9065e+006
506	1.9265e+006
507	4.0163e+006
507	3.453e+006
508	3.7443e+006
508	3.4624e+006
509	3.8351e+006
509	4.1337e+006
510	1.2134e+006
510	7.0947e+005
511	5.5953e+006
511	4.1083e+006
512	4.7772e+006
512	3.1515e+006
513	9.0264e+006
513	3.664e+006
514	7.5839e+006
514	4.5647e+006
515	3.2045e+006
515	5.5725e+006
516	4.2386e+006
516	3.8628e+006
517	5.8679e+006
517	3.2215e+006
518	5.2771e+006
518	3.5647e+006
519	5.444e+006
519	5.2582e+006
520	4.5845e+006
520	4.1239e+006
521	3.7406e+006
521	4.1631e+006
522	4.9957e+006
522	5.9526e+006
523	3.1214e+006
523	3.9929e+006
524	1.2721e+006
524	2.6109e+006
525	2.0084e+006
525	2.8791e+006
526	3.5794e+006
526	5.19e+006
527	3.3727e+006
527	4.8491e+006
528	2.9157e+006
528	3.2919e+006
529	2.3306e+006
529	4.7021e+006
530	2.8826e+006
530	5.9217e+006
531	4.3909e+006
531	5.208e+006
532	4.9926e+006
532	4.7422e+006
533	3.3402e+006
533	2.4904e+006
534	5.4995e+006
534	3.3379e+006
535	3.6562e+006
535	3.3002e+006
536	6.6741e+006
536	4.6693e+006
537	3.4855e+006
537	2.8972e+006
538	3.7512e+006
538	2.6448e+006
539	5.2847e+006
539	3.1839e+006
540	9.7552e+005
540	2.825e+005
541	1.0504e+006
541	1.3282e+006
542	1.2816e+006
542	1.3045e+006
543	1.4317e+006
543	1.5376e+006
544	1.1755e+006
544	1.2401e+006
545	1.4506e+006
545	2.8509e+006
546	3.8047e+006
546	4.3711e+006
547	2.2108e+006
547	2.5839e+006
548	3.2429e+006
548	4.3482e+006
549	1.9867e+006
549	1.7344e+006
550	1.6419e+006
550	1.6753e+006
551	5.1946e+005
551	1.7786e+006
552	1.9202e+006
552	2.4994e+006
553	3.9245e+006
553	3.6198e+006
554	5.8962e+006
554	2.9924e+006
555	4.2365e+006
555	3.9409e+006
556	1.2844e+006
556	2.5344e+006
557	9.5426e+005
557	1.3702e+006
558	8.9576e+005
558	1.2051e+006
559	2.7343e+006
559	1.3385e+006
560	1.5286e+006
560	3.4609e+005
561	2.8661e+006
561	1.7968e+006
562	8.2877e+005
562	2.3707e+006
563	2.3754e+005
563	7.5999e+005
564	1.7114e+006
564	2.1061e+006
565	2.0537e+006
565	2.4433e+006
566	4.6228e+006
566	2.8651e+006
567	1.2538e+006
567	7.8571e+005
568	3.8103e+006
568	3.234e+006
569	5.1833e+006
569	3.6729e+006
570	2.9077e+006
570	1.4785e+006
571	94026
571	1.7312e+005
572	1.7328e+005
572	2.0231e+005
573	1.7148e+005
573	1.8203e+005
574	46055
574	65500
575	60308
575	85126
576	54323
576	1.8976e+005
577	1.1576e+005
577	2.7647e+005
578	4.6167e+005
578	6.0221e+005
579	49633
579	3.4432e+005
580	7.022e+005
580	1.2463e+006
581	1.9577e+006
581	2.6627e+006
582	2.7037e+006
582	2.9535e+006
583	1.5805e+006
583	2.426e+006
584	1.1594e+006
584	1.1991e+006
585	8.1549e+005
585	6.8369e+005
586	1.1004e+006
586	8.6722e+005
587	1.3593e+006
587	3.8184e+005
588	7.9626e+005
588	6.4435e+005
589	1.1927e+006
589	1.1899e+006
590	1.0705e+006
590	7.1954e+005
591	8.2926e+005
591	6.6291e+005
592	1.478e+006
592	1.0951e+006
593	7.6358e+005
593	6.8859e+005
594	5.5726e+005
594	5.6782e+005
595	8.0842e+005
595	5.2494e+005
596	8.5546e+005
596	5.3663e+005
597	4.2061e+005
597	1.1111e+005
598	1.7309e+006
598	1.4638e+006
599	4.8513e+005
599	5.4572e+005
600	6.9107e+005
600	5.9821e+005
601	9.3868e+005
601	1.798e+006
602	8.0005e+005
602	9.9098e+005
603	1.2747e+006
603	1.9198e+006
604	5.3225e+005
604	8.4909e+005
605	5.3591e+005
605	8.8258e+005
606	1.6933e+006
606	1.6564e+006
607	4.7646e+005
607	5.8465e+005
608	8.1145e+005
608	4.6093e+005
609	1.0779e+006
609	7.8471e+005
610	47445
610	64692
611	3.6794e+006
611	4.906e+006
612	5.9678e+006
612	6.7243e+006
613	1.8485e+006
613	2.6779e+006
614	4.6662e+006
614	4.0035e+006
615	2.6786e+006
615	1.8916e+006
616	4.2182e+006
616	2.6998e+006
617	4.3205e+006
617	2.4962e+006
618	2.5613e+006
618	1.991e+006
619	1.5353e+006
619	1.8289e+006
620	3.1541e+006
620	4.1266e+006
621	1.9948e+006
621	2.3064e+006
622	2.2722e+006
622	4.2113e+006
623	2.4956e+006
623	3.4899e+006
624	2.2515e+006
624	1.2829e+006
625	8.7378e+005
625	6.1684e+005
626	3.9955e+006
626	3.5036e+006
627	3.7265e+006
627	1.9476e+006
628	4.9244e+006
628	3.68e+006
629	2.3439e+006
629	2.8549e+006
630	4.2652e+006
630	3.7894e+006
631	4.6232e+005
631	9.5895e+005
632	2.1014e+006
632	3.0349e+006
633	3.568e+006
633	4.077e+006
634	2.2412e+006
634	3.5033e+006
635	4.0388e+006
635	3.6031e+006
636	1.6006e+006
636	5.1051e+005
637	1.2558e+006
637	6.6855e+005
638	4.1205e+006
638	3.9496e+006
639	3.635e+006
639	3.2487e+006
640	2.1347e+006
640	2.5522e+006
641	7.495e+005
641	1.1458e+006
642	3.3617e+006
642	8.2954e+006
643	3.5263e+006
643	5.2898e+006
644	4.6436e+006
644	4.3366e+006
645	2.6134e+006
645	4.7865e+006
646	5.9554e+006
646	3.8331e+006
647	6.1083e+006
647	3.1316e+006
648	4.2117e+006
648	3.6559e+006
649	1.6788e+006
649	3.2469e+006
650	4.1303e+006
650	2.8231e+006
651	5.0143e+006
651	4.7252e+006
652	4.1439e+006
652	4.8286e+006
653	5.6525e+006
653	4.0761e+006
654	4.9118e+006
654	6.92e+006
655	6.1305e+006
655	5.8164e+006
656	3.4129e+006
656	1.8173e+006
657	5.3249e+006
657	3.234e+006
658	2.1944e+006
658	8.9397e+005
659	5.9435e+006
659	5.6519e+006
660	2.441e+006
660	4.912e+006
661	2.1916e+006
661	3.3326e+006
662	3.587e+006
662	4.9046e+006
663	4.9779e+006
663	4.5033e+006
664	5.0126e+006
664	3.8599e+006
665	0.
665	0.
666	4.0398e+006
666	1.2215e+006
667	1.316e+006
667	5.0424e+005
668	6.4735e+006
668	4.8946e+006
669	7.8281e+005
669	2.2723e+006
670	6.2265e+005
670	2.0939e+006
671	2.1647e+006
671	5.8752e+006
672	0.
672	0.
673	0.
673	0.
674	0.
674	0.
675	0.
675	0.
676	0.
676	0.
677	0.
677	0.
678	3.1065e+006
678	1.7646e+006
679	1.8748e+006
679	1.4391e+006
680	2.5324e+006
680	1.6693e+006
681	2.8688e+006
681	4.63e+006
682	1.5719e+006
682	1.3434e+006
683	2.5483e+006
683	2.9552e+006
684	0.
684	0.
685	0.
685	0.
686	0.
686	0.
687	0.
687	0.
688	0.
688	0.
689	0.
689	0.
690	0.
690	0.
691	0.
691	0.
692	0.
692	0.
693	0.
693	0.
694	0.
694	0.
695	0.
695	0.
696	0.
696	0.
697	0.
697	0.
698	0.
698	0.
699	2.5088e+005
699	5.0282e+005
700	1.8359e+006
700	1.8153e+006
701	0.
701	0.
702	12846
702	7504.7
703	0.
703	0.
704	0.
704	0.
705	0.
705	0.
706	0.
706	0.
707	7.3562e+005
707	7.224e+005
708	0.
708	0.
709	0.
709	0.
710	0.
710	0.
711	0.
711	0.
712	0.
712	0.
713	0.
713	0.
714	0.
714	0.
715	0.
715	0.
716	0.
716	0.
717	0.
717	0.
718	0.
718	0.
719	0.
719	0.
720	0.
720	0.
721	0.
721	0.
722	0.
722	0.
723	0.
723	0.
724	0.
724	0.
725	0.
725	0.
726	0.
726	0.
727	0.
727	0.
728	0.
728	0.
729	0.
729	0.
730	0.
730	0.
731	0.
731	0.
732	0.
732	0.
733	0.
733	0.
734	0.
734	0.
735	0.
735	0.
736	0.
736	0.
737	0.
737	0.
738	79707
738	82347
739	0.
739	0.
740	0.
740	0.
741	0.
741	0.
742	0.
742	0.
743	0.
743	0.
744	0.
744	0.
745	0.
745	0.
746	0.
746	0.
747	0.
747	0.
748	0.
748	0.
749	0.
749	0.
750	0.
750	0.
751	0.
751	0.
752	0.
752	0.
753	0.
753	0.
754	0.
754	0.
755	0.
755	0.
756	0.
756	0.
757	0.
757	0.
758	0.
758	0.
759	0.
759	0.
760	0.
760	0.
761	0.
761	0.
762	0.
762	0.
763	0.
763	0.
764	0.
764	0.
765	0.
765	0.
766	0.
766	0.
767	0.
767	0.
768	0.
768	0.
769	0.
769	0.
770	0.
770	0.
771	0.
771	0.
772	0.
772	0.
773	0.
773	0.
774	0.
774	0.
775	0.
775	0.
776	0.
776	0.
777	0.
777	0.
778	0.
778	0.
779	0.
779	0.
780	0.
780	0.
781	0.
781	0.
782	0.
782	0.
783	0.
783	0.
784	0.
784	0.
785	0.
785	0.
786	0.
786	0.
787	0.
787	0.
788	0.
788	0.
789	0.
789	0.
790	0.
790	0.
791	5.6917e+005
791	8.7597e+005
792	5.6704e+005
792	1.0583e+006
793	7.286e+005
793	1.1474e+006
794	4.0038e+005
794	1.5896e+006
795	1.158e+006
795	1.5237e+006
796	1.5242e+006
796	9.7565e+005
797	7.3318e+005
797	7.5282e+005
798	1.0646e+006
798	5.371e+005
799	1.3805e+006
799	1.6233e+006
800	2.1526e+006
800	1.7006e+006
801	2.2579e+006
801	1.7357e+006
802	9.1108e+005
802	1.7025e+006
803	5.0508e+005
803	5.6094e+005
804	4.0349e+005
804	1.5392e+005
805	1.6234e+006
805	1.0678e+006
806	8.9662e+005
806	9.6166e+005
807	9.6492e+005
807	1.0668e+006
808	9.2708e+005
808	3.4831e+005
809	1.8017e+006
809	1.7798e+006
810	1.3605e+006
810	1.0446e+006
811	1.0003e+006
811	8.3607e+005
812	9.7547e+005
812	6.969e+005
813	1.4981e+006
813	1.0377e+006
814	1.3654e+006
814	8.4063e+005
815	1.8911e+006
815	5.62e+005
816	2.2178e+006
816	1.0547e+006
817	1.2663e+006
817	1.2106e+006
818	8.2641e+005
818	2.594e+005
819	1.1426e+006
819	1.2524e+006
820	8.022e+005
820	1.0313e+006
821	1.247e+006
821	9.6819e+005
822	1.2071e+006
822	3.267e+005
823	2.0187e+006
823	1.4424e+006
824	1.1339e+006
824	8.8236e+005
825	1.6413e+006
825	1.0283e+006
826	1.93e+006
826	2.0687e+006
827	1.3539e+006
827	1.9769e+006
828	1.7549e+006
828	1.1761e+006
829	1.7473e+006
829	1.3772e+006
830	2.7023e+006
830	2.2022e+006
831	1.2019e+006
831	1.9801e+006
832	8.5799e+005
832	1.6108e+006
833	1.0013e+006
833	1.4466e+006
834	1.4467e+006
834	1.7512e+006
835	9.2406e+005
835	1.5278e+006
836	1.3161e+006
836	8.2144e+005
837	9.1625e+005
837	8.5799e+005
838	2.3641e+006
838	1.3758e+006
839	2.9389e+006
839	1.7366e+006
840	2.4302e+006
840	7.9698e+005
841	1.9677e+006
841	1.6726e+006
842	1.8146e+006
842	6.9962e+005
843	1.5927e+006
843	1.6401e+006
844	2.346e+006
844	3.0228e+006
845	2.8502e+006
845	1.8665e+006
846	1.731e+006
846	1.8133e+006
847	2.5746e+006
847	2.3231e+006
848	3.3392e+006
848	1.8236e+006
849	1.9725e+006
849	2.8604e+006
850	3.9828e+006
850	2.8947e+006
851	4.495e+005
851	1.5628e+006
852	1.2569e+006
852	1.3665e+006
853	7.7803e+005
853	1.1988e+006
854	2.5207e+006
854	3.2637e+006
855	3.3101e+006
855	2.9732e+006
856	1.0131e+006
856	1.65e+006
857	1.1688e+006
857	8.3251e+005
858	2.5753e+006
858	2.1159e+006
859	1.0838e+006
859	1.077e+006
860	1.3846e+006
860	6.0963e+005
861	2.2863e+006
861	1.7685e+006
862	2.8642e+006
862	1.8175e+006
863	1.5125e+006
863	1.0394e+006
864	1.4156e+006
864	2.0713e+006
865	9.9555e+005
865	1.9683e+006
866	9.6264e+005
866	4.0086e+006
867	1.796e+006
867	3.6576e+006
868	2.7657e+005
868	5.9023e+005
869	6.9082e+005
869	7.1658e+005
870	2.0081e+006
870	2.8216e+006
871	2.2791e+006
871	2.1036e+006
872	2.1635e+006
872	2.1028e+006
873	2.0624e+006
873	2.37e+006
874	1.5864e+006
874	1.4957e+006
875	1.4261e+006
875	1.6482e+006
876	1.6319e+006
876	1.7004e+006
877	1.4367e+006
877	1.4853e+006
878	2.0099e+006
878	3.0143e+006
879	2.2157e+006
879	2.9028e+006
880	1.6483e+006
880	9.9923e+005
881	1.652e+006
881	1.628e+006
882	1.0964e+006
882	4.1255e+005
883	1.3517e+006
883	1.5237e+006
884	2.5949e+006
884	1.4331e+006
885	2.4072e+006
885	2.7463e+006
886	3.327e+006
886	2.7038e+006
887	6.2468e+005
887	1.1654e+006
888	1.8592e+006
888	1.0727e+006
889	5.7898e+005
889	1.365e+006
890	1.4655e+006
890	1.7424e+006
891	2.6002e+006
891	3.5422e+006
892	3.3365e+006
892	2.2098e+006
893	4.3528e+006
893	2.8195e+006
894	3.9491e+006
894	2.3971e+006
895	1.4538e+006
895	8.3191e+005
896	2.4814e+006
896	1.4427e+006
897	2.8218e+006
897	1.96e+006
898	1.9437e+006
898	1.0072e+006
899	1.6709e+006
899	1.8467e+006
900	1.7383e+006
900	1.558e+006
901	1.3382e+006
901	9.8365e+005
902	3.8851e+005
902	1.0099e+006
903	2.0748e+006
903	1.1097e+006
904	2.3252e+006
904	1.5008e+006
905	2.8113e+006
905	1.6646e+006
906	2.5629e+006
906	1.5511e+006
907	2.5942e+006
907	1.2303e+006
908	1.2781e+006
908	1.0221e+006
909	2.3154e+006
909	4.7422e+006
910	2.008e+006
910	3.1092e+006
911	2.2689e+006
911	2.5792e+006
912	2.6194e+006
912	1.926e+006
913	3.0371e+006
913	1.4825e+006
914	6.2271e+006
914	3.7793e+006
915	2.1467e+006
915	1.8144e+006
916	3.1204e+006
916	3.7828e+006
917	3.1439e+006
917	2.914e+006
918	2.9532e+006
918	2.7854e+006
919	2.781e+006
919	2.5995e+006
920	1.112e+006
920	1.6256e+006
921	1.8438e+006
921	1.1493e+006
922	1.4708e+006
922	1.8374e+006
923	2.5247e+006
923	1.6149e+006
924	6.2642e+006
924	6.4584e+006
925	2.7682e+006
925	2.9859e+006
926	2.133e+006
926	1.4054e+006
927	1.3736e+006
927	3.0388e+006
928	1.5735e+006
928	1.7973e+006
929	3.5316e+006
929	3.285e+006
930	2.8465e+006
930	3.3186e+006
931	5.2647e+006
931	4.8543e+006
932	2.081e+006
932	1.9637e+006
933	2.9273e+006
933	3.5752e+006
934	2.5389e+006
934	3.2245e+006
935	1.2324e+006
935	1.9116e+006
936	2.9697e+006
936	3.3189e+006
937	2.1162e+006
937	3.605e+006
938	5.6954e+006
938	1.3829e+007
939	4.0153e+006
939	4.3373e+006
940	3.1837e+006
940	4.2077e+006
941	4.1162e+006
941	3.7919e+006
942	3.1089e+006
942	1.9069e+006
943	2.1047e+006
943	1.3376e+006
944	3.3458e+006
944	2.0865e+006
945	2.0542e+006
945	1.0842e+006
946	1.7166e+006
946	2.7043e+006
947	8.1892e+006
947	7.1233e+006
948	1.28e+006
948	2.3492e+006
949	3.0389e+006
949	1.9773e+006
950	2.3444e+006
950	8.1883e+005
951	3.253e+006
951	3.5712e+006
952	1.3646e+006
952	1.6424e+006
953	1.7116e+006
953	1.862e+006
954	1.1982e+006
954	1.9863e+006
955	2.1707e+006
955	5.5843e+005
956	2.5474e+006
956	2.394e+006
957	1.6807e+006
957	4.457e+005
958	2.2736e+006
958	1.3279e+006
959	2.9045e+006
959	2.2332e+006
960	1.0919e+006
960	2.0081e+006
961	2.2731e+006
961	2.0568e+006
962	2.3392e+006
962	2.1735e+006
963	2.1814e+006
963	1.6486e+006
964	8.0584e+005
964	7.5059e+005
965	3.1336e+006
965	2.4351e+006
966	4.3693e+006
966	4.5965e+006
967	3.5835e+006
967	1.583e+006
968	2.2246e+006
968	2.0304e+006
969	1.4561e+006
969	1.2396e+006
970	2.8287e+006
970	1.9448e+006
971	3.8557e+006
971	2.036e+006
972	5.1297e+006
972	2.6463e+006
973	1.8383e+006
973	1.3745e+006
974	2.5528e+006
974	2.2132e+006
975	1.9572e+006
975	1.3143e+006
976	1.4677e+006
976	1.3032e+006
977	1.6034e+006
977	1.4134e+006
978	1.2971e+006
978	2.2183e+006
979	1.5139e+006
979	2.1628e+006
980	7.8554e+005
980	1.0583e+006
981	5.7187e+005
981	8.3963e+005
982	1.1926e+006
982	1.5121e+006
983	1.7636e+006
983	1.7e+006
984	9.8789e+005
984	8.4435e+005
985	1.9394e+006
985	9.9005e+005
986	2.4692e+006
986	2.1327e+006
987	1.9679e+006
987	1.3333e+006
988	8.0862e+005
988	3.706e+005
989	1.498e+006
989	1.6091e+006
990	6.8454e+005
990	8.851e+005
991	1.5273e+006
991	1.3287e+006
992	6.4126e+005
992	9.2457e+005
993	1.5724e+006
993	1.2294e+006
994	3.0842e+006
994	2.3377e+006
995	4.2453e+006
995	2.1131e+006
996	2.5915e+006
996	2.427e+006
997	2.4387e+006
997	2.1389e+006
998	1.2907e+006
998	2.7046e+005
999	1.5443e+006
999	2.7382e+006
1000	1.1524e+006
1000	5.7612e+005
1001	1.8511e+006
1001	1.6183e+006
1002	1.1159e+006
1002	5.6855e+005
1003	1.9748e+006
1003	1.316e+006
1004	2.7464e+006
1004	2.3183e+006
1005	4.0258e+006
1005	3.1723e+006
1006	3.1771e+006
1006	4.1781e+006
1007	4.0667e+006
1007	4.1229e+006
1008	2.6382e+006
1008	2.1881e+006
1009	9.1806e+005
1009	8.5229e+005
1010	1.4642e+006
1010	1.6185e+006
1011	6.343e+005
1011	7.7572e+005
1012	1.8486e+006
1012	1.4204e+006
1013	1.9429e+006
1013	1.784e+006
1014	2.2451e+006
1014	1.7294e+006
1015	3.0202e+006
1015	2.2037e+006
1016	2.5929e+006
1016	1.3079e+006
1017	3.0909e+006
1017	3.2523e+006
1018	2.85e+006
1018	1.729e+006
1019	1.8791e+006
1019	1.6956e+006
1020	2.9818e+006
1020	3.22e+006
1021	2.0897e+006
1021	2.5032e+006
1022	2.8532e+006
1022	3.6552e+006
1023	3.1584e+006
1023	2.7934e+006
1024	2.2124e+006
1024	1.7171e+006
1025	4.4712e+006
1025	3.2092e+006
1026	2.1255e+006
1026	1.6739e+006
1027	2.4989e+006
1027	2.1041e+006
1028	3.9054e+006
1028	3.9205e+006
1029	7.2595e+006
1029	8.3729e+006
1030	4.6939e+006
1030	5.3507e+006
1031	1.5772e+006
1031	1.5748e+006
1032	2.0395e+006
1032	2.9815e+006
1033	4.936e+006
1033	4.7559e+006
1034	4.1122e+006
1034	3.1448e+006
1035	8.4552e+005
1035	1.3013e+006
1036	2.5373e+006
1036	3.6874e+006
1037	2.6921e+006
1037	2.3562e+006
1038	1.9411e+006
1038	1.7747e+006
1039	2.5288e+006
1039	2.1848e+006
1040	3.1013e+006
1040	3.1363e+006
1041	1.7352e+006
1041	2.5228e+006
1042	3.4445e+006
1042	2.4823e+006
1043	2.2856e+006
1043	2.4362e+006
1044	3.1962e+006
1044	1.6894e+006
1045	1.1612e+006
1045	1.4826e+006
1046	1.9815e+006
1046	1.7131e+006
1047	3.1992e+006
1047	3.5403e+006
1048	4.4607e+006
1048	4.3975e+006
1049	1.335e+006
1049	1.4131e+006
1050	1.897e+006
1050	3.1796e+006
1051	2.6044e+006
1051	2.3046e+006
1052	9.6671e+005
1052	6.2375e+005
1053	3.7523e+005
1053	3.0019e+005
1054	8.1955e+005
1054	9.5426e+005
1055	2.0832e+006
1055	1.6958e+006
1056	1.9797e+006
1056	9.0673e+005
1057	2.8911e+006
1057	1.818e+006
1058	2.1371e+006
1058	1.7435e+006
1059	2.1758e+006
1059	2.9163e+006
1060	2.7241e+006
1060	3.7236e+006
1061	2.9575e+006
1061	2.8734e+006
1062	1.2875e+006
1062	1.7741e+006
1063	1.7696e+006
1063	1.3634e+006
1064	2.9706e+006
1064	2.0322e+006
1065	1.706e+006
1065	2.1553e+006
1066	2.7195e+006
1066	1.105e+006
1067	2.299e+006
1067	1.921e+006
1068	2.9296e+006
1068	2.7474e+006
1069	4.7304e+006
1069	3.4962e+006
1070	3.4174e+005
1070	1.0905e+006
1071	1.0622e+006
1071	1.1487e+006
1072	2.408e+006
1072	2.1503e+006
1073	2.6488e+005
1073	3.0444e+005
1074	1.149e+005
1074	3.951e+005
1075	1.2665e+006
1075	9.5587e+005
1076	5.6736e+005
1076	4.9433e+005
1077	2.9708e+006
1077	2.2648e+006
1078	6.4272e+005
1078	1.0336e+006
1079	1.1249e+006
1079	1.0265e+006
1080	6.8849e+005
1080	1.019e+006
1081	1.3071e+006
1081	1.3201e+006
1082	2.5447e+006
1082	3.1514e+006
1083	1.1179e+006
1083	8.2863e+005
1084	1.7188e+006
1084	1.8311e+006
1085	2.5224e+006
1085	2.0802e+006
1086	2.0501e+006
1086	1.5026e+006
1087	1.7312e+006
1087	1.2277e+006
1088	1.7423e+006
1088	1.6232e+006
1089	1.99e+006
1089	9.5977e+005
1090	6.2645e+006
1090	6.084e+006
1091	2.6514e+006
1091	3.8775e+006
1092	6.2616e+005
1092	9.8905e+005
1093	1.1796e+006
1093	1.0066e+006
1094	1.2553e+006
1094	1.063e+006
1095	1.9595e+006
1095	2.0611e+006
1096	8.9466e+005
1096	7.3909e+005
1097	2.4255e+006
1097	2.3799e+006
1098	4.5736e+006
1098	4.8477e+006
1099	2.3304e+006
1099	2.5766e+006
1100	9.135e+005
1100	1.5189e+006
1101	1.911e+006
1101	1.8739e+006
1102	8.8469e+005
1102	1.0213e+006
1103	7.3341e+005
1103	1.5286e+006
1104	1.666e+006
1104	1.1865e+006
1105	1.6838e+006
1105	2.0158e+006
1106	5.2549e+006
1106	6.3469e+006
1107	2.0867e+006
1107	2.7074e+006
1108	2.3078e+006
1108	2.0305e+006
1109	1.4341e+006
1109	1.5201e+006
1110	1.698e+006
1110	1.7513e+006
1111	1.2688e+006
1111	1.3294e+006
1112	6.8465e+005
1112	1.5886e+006
1113	9.7612e+005
1113	1.8704e+006
1114	2.4894e+006
1114	2.0587e+006
1115	2.3219e+006
1115	2.1014e+006
1116	3.4427e+006
1116	3.7636e+006
1117	3.8425e+006
1117	3.3508e+006
1118	2.3603e+006
1118	2.3189e+006
1119	1.3703e+006
1119	2.4779e+006
1120	1.8357e+006
1120	2.1761e+006
1121	1.6663e+006
1121	1.3529e+006
1122	1.2131e+006
1122	8.167e+005
1123	1.8078e+006
1123	1.2124e+006
1124	1.1736e+006
1124	1.7582e+006
1125	2.2567e+006
1125	3.1812e+006
1126	1.194e+006
1126	1.7645e+006
1127	2.5666e+006
1127	1.6765e+006
1128	2.1998e+006
1128	1.3724e+006
1129	8.7281e+005
1129	2.9947e+006
1130	1.4e+006
1130	1.788e+006
1131	1.1121e+006
1131	1.3265e+006
1132	2.1966e+006
1132	2.3886e+006
1133	2.7856e+006
1133	1.9358e+006
1134	3.0732e+006
1134	2.538e+006
1135	3.9838e+006
1135	2.5075e+006
1136	2.9011e+006
1136	3.9687e+006
1137	4.1153e+006
1137	3.3763e+006
1138	1.1639e+006
1138	1.1884e+006
1139	2.8594e+006
1139	1.4365e+006
1140	5.9638e+006
1140	2.5396e+006
1141	2.4901e+006
1141	2.3154e+006
1142	1.9923e+006
1142	1.1322e+006
1143	4.0469e+006
1143	2.5001e+006
1144	4.0623e+006
1144	2.9237e+006
1145	2.3246e+006
1145	2.3171e+006
1146	3.1773e+006
1146	4.316e+006
1147	1.776e+006
1147	2.4437e+006
1148	2.9833e+006
1148	2.8975e+006
1149	2.1261e+006
1149	3.2328e+006
1150	6.1824e+006
1150	4.5076e+006
1151	1.2129e+006
1151	1.938e+006
1152	1.6003e+006
1152	2.5574e+006
1153	1.6571e+006
1153	1.5426e+006
1154	3.9615e+006
1154	3.1351e+006
1155	2.9106e+006
1155	2.1536e+006
1156	3.9529e+006
1156	1.4078e+006
1157	2.0609e+006
1157	3.6457e+006
1158	1.9004e+006
1158	1.9234e+006
1159	1.5301e+006
1159	3.0108e+006
1160	1.9804e+006
1160	3.2935e+006
1161	2.1079e+006
1161	2.1558e+006
1162	2.4978e+006
1162	2.9408e+006
1163	3.178e+006
1163	3.6341e+006
1164	1.531e+006
1164	1.7574e+006
1165	1.5951e+006
1165	2.0811e+006
1166	3.6623e+006
1166	2.8858e+006
1167	1.9835e+006
1167	1.752e+006
1168	1.8942e+006
1168	2.9219e+006
1169	2.5699e+006
1169	2.9855e+006
1170	2.1447e+006
1170	2.1444e+006
1171	2.4679e+006
1171	2.0798e+006
1172	3.3678e+006
1172	2.0577e+006
1173	1.6293e+006
1173	2.2007e+006
1174	2.1983e+006
1174	3.4446e+006
1175	1.8563e+006
1175	3.0967e+006
1176	8.4761e+005
1176	3.9642e+005
1177	1.1548e+006
1177	4.2096e+005
1178	1.535e+006
1178	1.332e+006
1179	8.8838e+005
1179	1.5027e+006
1180	8.0875e+005
1180	2.6629e+005
1181	3.1767e+006
1181	2.2799e+006
1182	1.3966e+006
1182	1.2881e+006
1183	2.0111e+006
1183	1.7479e+006
1184	9.6098e+005
1184	7.2092e+005
1185	2.6541e+006
1185	2.232e+006
1186	4.3755e+005
1186	9.8767e+005
1187	7.3462e+005
1187	1.2533e+006
1188	7.1522e+005
1188	5.951e+005
1189	1.8966e+006
1189	1.4885e+006
1190	8.2612e+005
1190	7.6507e+005
1191	4.8608e+006
1191	4.5653e+006
1192	1.3071e+006
1192	1.4065e+006
1193	1.5994e+006
1193	8.1513e+005
1194	1.4089e+006
1194	1.184e+006
1195	8.2755e+006
1195	6.2761e+006
1196	1.9974e+006
1196	2.6788e+006
1197	2.5381e+006
1197	1.6717e+006
1198	2.0598e+006
1198	1.9443e+006
1199	1.5936e+006
1199	1.1789e+006
1200	2.6332e+006
1200	3.1501e+006
1201	3.2541e+006
1201	3.9914e+006
1202	3.1523e+006
1202	2.519e+006
1203	4.2779e+006
1203	4.2533e+006
1204	2.316e+006
1204	2.3103e+006
1205	2.4798e+006
1205	2.363e+006
1206	2.27e+006
1206	1.0993e+006
1207	9.537e+005
1207	1.4395e+006
1208	2.0705e+006
1208	2.3064e+006
1209	7.303e+005
1209	1.1862e+006
1210	1.1004e+006
1210	1.7806e+006
1211	2.5351e+006
1211	1.5534e+006
1212	8.8123e+005
1212	1.2011e+006
1213	5.9624e+005
1213	1.0987e+006
1214	8.0127e+005
1214	5.791e+005
1215	8.8851e+005
1215	3.6375e+005
1216	3.4246e+006
1216	1.8332e+006
1217	2.5132e+006
1217	2.169e+006
1218	2.3671e+006
1218	1.3396e+006
1219	2.9165e+006
1219	2.9434e+006
1220	1.8706e+006
1220	1.3657e+006
1221	1.5152e+006
1221	2.6142e+006
1222	1.5972e+006
1222	1.4318e+006
1223	1.9556e+006
1223	1.8015e+006
1224	2.7289e+006
1224	2.0093e+006
1225	2.1335e+006
1225	2.4365e+006
1226	1.1226e+006
1226	4.7113e+005
1227	4.9044e+006
1227	4.191e+006
1228	2.3022e+006
1228	2.2976e+006
1229	1.3567e+006
1229	1.6494e+006
1230	1.5502e+006
1230	1.622e+006
1231	1.2751e+006
1231	2.1059e+006
1232	2.0912e+006
1232	2.5197e+006
1233	4.4746e+006
1233	3.638e+006
1234	2.5191e+006
1234	2.857e+006
1235	1.7467e+006
1235	4.6553e+006
1236	3.1458e+006
1236	5.2374e+006
1237	2.3203e+006
1237	2.6305e+006
1238	4.5897e+006
1238	3.0687e+006
1239	2.4134e+006
1239	2.1736e+006
1240	1.8077e+006
1240	3.2742e+006
1241	3.7252e+006
1241	4.2372e+006
1242	2.0573e+006
1242	3.9062e+006
1243	2.0636e+006
1243	2.0018e+006
1244	3.2578e+006
1244	3.3162e+006
1245	2.0194e+006
1245	1.2464e+006
1246	4.251e+006
1246	3.0678e+006
1247	2.8609e+006
1247	4.2605e+006
1248	3.3889e+006
1248	4.3694e+006
1249	4.1136e+006
1249	4.9673e+006
1250	2.243e+006
1250	2.9129e+006
1251	3.3071e+006
1251	2.2913e+006
1252	2.7118e+006
1252	2.2495e+006
1253	1.3079e+006
1253	1.5799e+006
1254	2.8364e+006
1254	1.836e+006
1255	4.2591e+006
1255	2.6169e+006
1256	2.9048e+006
1256	2.2964e+006
1257	1.7749e+006
1257	1.5539e+006
1258	3.582e+006
1258	1.8548e+006
1259	2.3011e+006
1259	1.6279e+006
1260	2.7888e+006
1260	3.432e+006
1261	2.781e+006
1261	2.1004e+006
1262	1.9953e+006
1262	2.6566e+006
1263	8.2243e+005
1263	2.8641e+006
1264	3.234e+006
1264	1.9539e+006
1265	1.6541e+006
1265	1.0973e+006
1266	2.6279e+006
1266	2.1936e+006
1267	3.2633e+006
1267	2.049e+006
1268	2.2218e+006
1268	3.9202e+006
1269	2.0139e+006
1269	2.5411e+006
1270	7.8704e+005
1270	9.947e+005
1271	1.4046e+005
1271	4.9942e+005
1272	1.0315e+006
1272	1.2535e+006
1273	1.8178e+006
1273	2.3946e+006
1274	2.3607e+006
1274	3.076e+006
1275	1.9289e+006
1275	1.5176e+006
1276	1.4781e+006
1276	1.2936e+006
1277	6.3289e+005
1277	3.1987e+005
1278	1.339e+006
1278	1.145e+006
1279	7.8011e+005
1279	9.275e+005
1280	1.4273e+006
1280	7.7531e+005
1281	2.0081e+006
1281	1.4367e+006
1282	4.0406e+006
1282	3.8972e+006
1283	1.9033e+006
1283	1.7808e+006
1284	2.7944e+006
1284	2.4013e+006
1285	8.8847e+005
1285	7.5625e+005
1286	8.8432e+005
1286	3.2506e+005
1287	3.3721e+006
1287	2.2307e+006
1288	4.6408e+006
1288	3.2326e+006
1289	2.5614e+005
1289	4.943e+005
1290	7.5444e+005
1290	1.6158e+006
1291	2.2825e+006
1291	1.9762e+006
1292	1.9815e+006
1292	2.498e+006
1293	1.4578e+006
1293	8.756e+005
1294	3.1002e+006
1294	2.0455e+006
1295	1.6947e+006
1295	1.2059e+006
1296	2.5946e+006
1296	2.1049e+006
1297	2.336e+006
1297	2.6189e+006
1298	3.1423e+006
1298	2.1558e+006
1299	3.8956e+006
1299	3.0721e+006
1300	2.8556e+006
1300	9.3397e+005
1301	2.9724e+006
1301	2.0976e+006
1302	1.5369e+006
1302	1.8565e+006
1303	1.2682e+006
1303	4.4335e+005
1304	1.7479e+006
1304	9.4383e+005
1305	3.6268e+006
1305	4.9271e+006
1306	7.7267e+005
1306	1.3303e+006
1307	1.9066e+006
1307	1.6284e+006
1308	2.7554e+006
1308	2.1666e+006
1309	1.6369e+006
1309	1.5824e+006
1310	2.6771e+006
1310	2.5236e+006
1311	2.1896e+006
1311	1.8739e+006
1312	2.088e+006
1312	2.4179e+006
1313	1.045e+006
1313	1.9815e+006
1314	2.588e+006
1314	2.4928e+006
1315	2.0057e+006
1315	1.1551e+006
1316	2.7276e+006
1316	2.6218e+006
1317	7.4201e+005
1317	1.616e+006
1318	1.9487e+006
1318	2.0883e+006
1319	1.7865e+006
1319	2.4963e+006
1320	2.5454e+006
1320	3.0748e+006
1321	1.3938e+006
1321	1.9099e+006
1322	7.4462e+006
1322	8.5679e+006
1323	3.8693e+006
1323	3.9577e+006
1324	4.8386e+006
1324	4.616e+006
1325	2.271e+006
1325	2.5603e+006
1326	1.4219e+006
1326	1.738e+006
1327	2.1336e+006
1327	2.4609e+006
1328	4.4931e+006
1328	3.3801e+006
1329	9.7364e+005
1329	1.0087e+006
1330	3.4903e+006
1330	1.7632e+006
1331	2.1637e+006
1331	1.8343e+006
1332	2.5635e+006
1332	2.2607e+006
1333	4.5207e+006
1333	2.4942e+006
1334	5.1732e+006
1334	4.5651e+006
1335	1.5768e+006
1335	1.3328e+006
1336	3.7045e+006
1336	1.9243e+006
1337	2.9365e+006
1337	1.4792e+006
1338	1.5783e+006
1338	1.7376e+006
1339	3.4925e+006
1339	3.9248e+006
1340	6.0577e+006
1340	5.3605e+006
1341	2.7472e+006
1341	4.7112e+006
1342	1.3526e+006
1342	1.5276e+006
1343	5.124e+006
1343	5.2791e+006
1344	4.0797e+006
1344	3.9133e+006
1345	4.9783e+006
1345	2.2881e+006
1346	3.8857e+006
1346	4.889e+006
1347	0.
1347	0.
1348	0.
1348	0.
1349	0.
1349	0.
1350	0.
1350	0.
1351	2.0231e+006
1351	9.7575e+005
1352	2.4969e+006
1352	1.1313e+006
1353	0.
1353	0.
1354	1.3447e+006
1354	1.1667e+006
1355	1.9045e+006
1355	2.3649e+006
1356	0.
1356	0.
1357	0.
1357	0.
1358	0.
1358	0.
1359	0.
1359	0.
1360	0.
1360	0.
1361	0.
1361	0.
1362	0.
1362	0.
1363	0.
1363	0.
1364	0.
1364	0.
1365	0.
1365	0.
1366	0.
1366	0.
1367	0.
1367	0.
1368	0.
1368	0.
1369	0.
1369	0.
1370	0.
1370	0.
1371	0.
1371	0.
1372	0.
1372	0.
1373	0.
1373	0.
1374	0.
1374	0.
1375	0.
1375	0.
1376	0.
1376	0.
1377	0.
1377	0.
1378	0.
1378	0.
1379	0.
1379	0.
1380	0.
1380	0.
1381	0.
1381	0.
1382	0.
1382	0.
1383	1.4986e+005
1383	7.3557e+005
1384	1.9266e+005
1384	2.5192e+005
1385	0.
1385	0.
1386	0.
1386	0.
1387	0.
1387	0.
1388	2.2609e+006
1388	1.5481e+006
1389	1.3564e+006
1389	1.4934e+006
1390	58664
1390	57061
1391	7.4728e+005
1391	4.9307e+005
1392	0.
1392	0.
1393	0.
1393	0.
1394	0.
1394	0.
1395	0.
1395	0.
1396	0.
1396	0.
1397	0.
1397	0.
1398	0.
1398	0.
1399	0.
1399	0.
1400	0.
1400	0.
1401	0.
1401	0.
1402	0.
1402	0.
1403	0.
1403	0.
1404	0.
1404	0.
1405	0.
1405	0.
1406	0.
1406	0.
1407	0.
1407	0.
1408	0.
1408	0.
1409	0.
1409	0.
1410	0.
1410	0.
1411	0.
1411	0.
1412	0.
1412	0.
1413	0.
1413	0.
1414	0.
1414	0.
1415	0.
1415	0.
1416	0.
1416	0.
1417	0.
1417	0.
1418	0.
1418	0.
1419	0.
1419	0.
1420	0.
1420	0.
1421	1.3963e+006
1421	9.0997e+005
1422	0.
1422	0.
1423	0.
1423	0.
1424	0.
1424	0.
1425	0.
1425	0.
1426	0.
1426	0.
1427	0.
1427	0.
1428	0.
1428	0.
1429	0.
1429	0.
1430	0.
1430	0.
1431	0.
1431	0.
1432	0.
1432	0.
1433	0.
1433	0.
1434	0.
1434	0.
1435	0.
1435	0.
1436	0.
1436	0.
1437	0.
1437	0.
1438	0.
1438	0.
1439	0.
1439	0.
1440	0.
1440	0.
1441	0.
1441	0.
1442	0.
1442	0.
1443	0.
1443	0.
1444	0.
1444	0.
1445	0.
1445	0.
1446	0.
1446	0.
1447	0.
1447	0.
1448	0.
1448	0.
1449	0.
1449	0.
1450	0.
1450	0.
1451	0.
1451	0.
1452	0.
1452	0.
1453	0.
1453	0.
1454	0.
1454	0.
1455	0.
1455	0.
1456	0.
1456	0.
1457	0.
1457	0.
1458	0.
1458	0.
1459	0.
1459	0.
1460	0.
1460	0.
1461	0.
1461	0.
1462	0.
1462	0.
1463	0.
1463	0.
1464	0.
1464	0.
1465	0.
1465	0.
1466	0.
1466	0.
1467	0.
1467	0.
1468	0.
1468	0.
1469	0.
1469	0.
1470	0.
1470	0.
1471	0.
1471	0.
1472	0.
1472	0.
1473	0.
1473	0.
1474	0.
1474	0.
1475	3.4714e+005
1475	1.0689e+006
1476	7.0237e+005
1476	2.5658e+006
1477	7.5622e+005
1477	1.6264e+006
1478	4.7917e+005
1478	1.1228e+006
1479	5.5236e+005
1479	9.5903e+005
1480	5.2161e+005
1480	1.4209e+006
1481	1.5016e+006
1481	1.4514e+006
1482	8.1e+005
1482	7.5359e+005
1483	5.9428e+005
1483	6.3487e+005
1484	1.2573e+006
1484	4.5403e+005
1485	1.4019e+006
1485	3.2994e+005
1486	7.2561e+005
1486	8.3071e+005
1487	2.1457e+006
1487	1.9182e+006
1488	2.013e+006
1488	2.2493e+006
1489	1.7993e+006
1489	2.0879e+006
1490	7.1752e+005
1490	1.291e+006
1491	6.739e+005
1491	9.1585e+005
1492	2.7933e+006
1492	2.4773e+006
1493	1.8758e+006
1493	1.5021e+006
1494	1.3337e+006
1494	1.6616e+006
1495	2.119e+006
1495	8.8085e+005
1496	1.3436e+006
1496	1.362e+006
1497	1.805e+006
1497	2.4642e+006
1498	3.4918e+006
1498	1.4481e+006
1499	1.3242e+006
1499	2.0997e+006
1500	9.9642e+005
1500	1.0133e+006
1501	1.5739e+006
1501	1.801e+006
1502	1.2736e+006
1502	1.7624e+006
1503	2.013e+006
1503	2.1428e+006
1504	4.0302e+006
1504	4.1232e+006
1505	1.5508e+006
1505	8.001e+005
1506	1.6692e+006
1506	2.0741e+006
1507	2.6861e+006
1507	1.9452e+006
1508	1.6421e+006
1508	9.1123e+005
1509	3.6795e+006
1509	3.4378e+006
1510	3.1572e+006
1510	2.4719e+006
1511	4.5914e+006
1511	3.3764e+006
1512	3.4864e+006
1512	2.8321e+006
1513	3.0736e+006
1513	3.5452e+006
1514	2.1741e+006
1514	2.1465e+006
1515	2.6062e+006
1515	1.6867e+006
1516	1.7259e+006
1516	1.7236e+006
1517	2.3446e+006
1517	3.0775e+006
1518	1.2445e+006
1518	9.594e+005
1519	2.5051e+006
1519	1.0883e+006
1520	1.2722e+006
1520	1.515e+006
1521	2.4284e+006
1521	2.2154e+006
1522	1.7174e+006
1522	1.9474e+006
1523	3.5192e+006
1523	3.2281e+006
1524	1.9062e+006
1524	1.4774e+006
1525	2.4302e+006
1525	3.7639e+006
1526	3.3107e+006
1526	1.725e+006
1527	1.8469e+006
1527	2.313e+006
1528	1.2282e+006
1528	1.1181e+006
1529	1.0859e+006
1529	2.403e+006
1530	2.4988e+006
1530	2.4179e+006
1531	1.4795e+006
1531	1.4748e+006
1532	1.2822e+006
1532	2.0378e+006
1533	2.3623e+006
1533	2.8649e+006
1534	1.1388e+006
1534	3.1169e+006
1535	1.8338e+006
1535	2.1985e+006
1536	3.108e+006
1536	3.5172e+006
1537	1.6227e+006
1537	1.2326e+006
1538	2.5867e+006
1538	3.1031e+006
1539	1.0092e+006
1539	1.7629e+006
1540	2.7854e+006
1540	7.8278e+005
1541	1.7225e+006
1541	1.7777e+006
1542	4.0017e+006
1542	2.215e+006
1543	2.8499e+006
1543	1.9e+006
1544	2.4369e+006
1544	2.8354e+006
1545	2.3649e+006
1545	6.7532e+005
1546	1.5569e+006
1546	2.9178e+006
1547	2.2261e+006
1547	1.9036e+006
1548	1.6979e+006
1548	2.3622e+006
1549	4.3144e+005
1549	1.3736e+006
1550	1.812e+006
1550	1.2952e+006
1551	8.9414e+005
1551	1.8232e+006
1552	1.1499e+006
1552	2.539e+006
1553	3.2171e+006
1553	2.3893e+006
1554	2.8174e+006
1554	3.2786e+006
1555	1.3562e+006
1555	1.982e+006
1556	3.837e+006
1556	3.6281e+006
1557	2.2087e+006
1557	2.6919e+006
1558	1.749e+006
1558	1.4221e+006
1559	1.9674e+006
1559	1.6452e+006
1560	1.1567e+006
1560	1.1257e+006
1561	4.3762e+006
1561	4.9627e+006
1562	3.3502e+006
1562	4.2078e+006
1563	2.0865e+006
1563	2.2748e+006
1564	2.7422e+006
1564	1.4839e+006
1565	1.2802e+006
1565	1.6204e+006
1566	1.1722e+006
1566	9.3255e+005
1567	2.1773e+006
1567	2.961e+006
1568	1.1176e+006
1568	8.6143e+005
1569	4.3752e+006
1569	3.9898e+006
1570	2.1403e+006
1570	1.6724e+006
1571	2.8923e+006
1571	3.5404e+006
1572	3.6159e+006
1572	4.6327e+006
1573	5.1188e+006
1573	3.9676e+006
1574	2.02e+006
1574	2.2297e+006
1575	1.7105e+006
1575	2.7016e+006
1576	1.8682e+006
1576	1.9632e+006
1577	2.2296e+006
1577	4.6663e+005
1578	2.102e+006
1578	4.3387e+006
1579	8.5017e+005
1579	1.2067e+006
1580	2.2208e+006
1580	2.432e+006
1581	1.4404e+006
1581	1.6028e+006
1582	1.1453e+006
1582	1.259e+006
1583	1.23e+006
1583	1.7783e+006
1584	1.0591e+006
1584	1.4438e+006
1585	2.7915e+006
1585	1.57e+006
1586	1.5858e+006
1586	2.0806e+006
1587	6.2818e+005
1587	1.0218e+006
1588	2.4782e+006
1588	3.1013e+006
1589	2.1226e+006
1589	2.1867e+006
1590	3.0627e+006
1590	3.4212e+006
1591	2.3649e+006
1591	3.e+006
1592	1.4559e+006
1592	1.3633e+006
1593	2.3906e+006
1593	3.2753e+006
1594	2.7047e+006
1594	1.258e+006
1595	2.5091e+006
1595	2.8532e+006
1596	2.4838e+006
1596	2.2199e+006
1597	9.7295e+005
1597	1.0701e+006
1598	3.0854e+006
1598	3.3379e+006
1599	1.669e+006
1599	1.5161e+006
1600	2.208e+006
1600	2.4572e+006
1601	1.5962e+006
1601	7.8645e+005
1602	2.8639e+006
1602	3.2301e+006
1603	1.9772e+006
1603	1.2552e+006
1604	1.9022e+006
1604	1.6905e+006
1605	2.8418e+006
1605	2.7678e+006
1606	1.9832e+006
1606	3.1059e+006
1607	1.5866e+006
1607	2.9644e+006
1608	1.748e+006
1608	1.1876e+006
1609	1.1135e+006
1609	1.8299e+006
1610	2.2343e+006
1610	1.517e+006
1611	1.7002e+006
1611	7.3065e+005
1612	5.7949e+005
1612	1.5158e+006
1613	1.3607e+006
1613	1.2314e+006
1614	3.1369e+006
1614	3.5695e+006
1615	3.6623e+006
1615	3.4431e+006
1616	2.3443e+006
1616	1.9596e+006
1617	2.0786e+006
1617	1.1456e+006
1618	2.1875e+006
1618	1.6429e+006
1619	3.9729e+006
1619	3.9628e+006
1620	1.5221e+006
1620	1.7312e+006
1621	2.1571e+006
1621	1.3568e+006
1622	1.2364e+006
1622	8.9223e+005
1623	1.1931e+006
1623	2.0954e+006
1624	2.649e+006
1624	1.3169e+006
1625	2.0126e+006
1625	1.4036e+006
1626	1.0971e+006
1626	2.9089e+006
1627	1.3167e+006
1627	1.1571e+006
1628	1.9588e+006
1628	2.8739e+006
1629	1.6618e+006
1629	1.6594e+006
1630	1.6645e+006
1630	1.4999e+006
1631	1.8251e+006
1631	1.6758e+006
1632	4.0607e+006
1632	2.3994e+006
1633	2.0139e+006
1633	1.2578e+006
1634	1.5793e+006
1634	2.1376e+006
1635	1.8745e+006
1635	3.9873e+006
1636	1.8269e+006
1636	1.6885e+006
1637	2.6678e+006
1637	2.5168e+006
1638	1.1208e+006
1638	1.5975e+006
1639	2.1994e+006
1639	2.5695e+006
1640	3.487e+006
1640	4.0358e+006
1641	2.7407e+006
1641	2.2356e+006
1642	1.358e+006
1642	1.352e+006
1643	3.2117e+006
1643	2.7097e+006
1644	2.6344e+006
1644	2.2206e+006
1645	1.9384e+006
1645	1.7687e+006
1646	6.9287e+005
1646	1.6047e+006
1647	1.6631e+006
1647	1.3261e+006
1648	2.6791e+006
1648	3.9547e+006
1649	2.0604e+006
1649	1.3254e+006
1650	1.4268e+006
1650	1.8769e+006
1651	2.1895e+006
1651	3.2952e+006
1652	5.0369e+006
1652	4.4931e+006
1653	4.0258e+006
1653	3.6075e+006
1654	1.3763e+006
1654	2.0122e+006
1655	4.3556e+006
1655	3.8944e+006
1656	2.0553e+006
1656	1.8621e+006
1657	9.4477e+005
1657	2.0847e+006
1658	3.1396e+006
1658	3.4857e+006
1659	5.7277e+006
1659	6.9149e+006
1660	2.177e+006
1660	2.5994e+006
1661	1.4211e+006
1661	2.1671e+006
1662	9.2658e+005
1662	1.3309e+006
1663	1.3085e+006
1663	1.0279e+006
1664	3.5569e+006
1664	4.2015e+006
1665	8.8135e+005
1665	3.0379e+006
1666	1.3912e+006
1666	3.2894e+006
1667	1.3474e+006
1667	1.0355e+006
1668	1.1366e+006
1668	1.5878e+006
1669	2.4668e+006
1669	1.8549e+006
1670	3.6011e+006
1670	3.5293e+006
1671	8.2919e+005
1671	6.5968e+005
1672	2.1632e+006
1672	3.4794e+006
1673	1.5384e+006
1673	1.7795e+006
1674	1.4003e+006
1674	2.8356e+005
1675	2.1538e+006
1675	1.6047e+006
1676	8.1049e+005
1676	3.2468e+005
1677	1.6239e+006
1677	1.7896e+006
1678	4.0837e+006
1678	2.9761e+006
1679	2.9572e+006
1679	3.324e+006
1680	1.166e+006
1680	1.4516e+006
1681	2.1455e+006
1681	2.072e+006
1682	9.3236e+005
1682	1.3189e+006
1683	0.
1683	0.
1684	1.2882e+006
1684	1.5859e+006
1685	3.0996e+006
1685	2.9434e+006
1686	4.3375e+005
1686	1.1539e+006
1687	0.
1687	0.
1688	0.
1688	0.
1689	8.5177e+005
1689	9.322e+005
1690	0.
1690	0.
1691	0.
1691	0.
1692	0.
1692	0.
1693	0.
1693	0.
1694	0.
1694	0.
1695	0.
1695	0.
1696	84285
1696	33858
1697	0.
1697	0.
1698	0.
1698	0.
1699	0.
1699	0.
1700	0.
1700	0.
1701	0.
1701	0.
1702	7.6203e+005
1702	1.0225e+006
1703	0.
1703	0.
1704	0.
1704	0.
1705	0.
1705	0.
1706	0.
1706	0.
1707	0.
1707	0.
1708	0.
1708	0.
1709	0.
1709	0.
1710	0.
1710	0.
1711	0.
1711	0.
1712	0.
1712	0.
1713	0.
1713	0.
1714	0.
1714	0.
1715	0.
1715	0.
1716	0.
1716	0.
1717	0.
1717	0.
1718	0.
1718	0.
1719	0.
1719	0.
1720	0.
1720	0.
1721	0.
1721	0.
1722	0.
1722	0.
1723	0.
1723	0.
1724	0.
1724	0.
1725	0.
1725	0.
1726	0.
1726	0.
1727	0.
1727	0.
1728	0.
1728	0.
1729	0.
1729	0.
1730	0.
1730	0.
1731	0.
1731	0.
1732	0.
1732	0.
1733	0.
1733	0.
1734	0.
1734	0.
1735	0.
1735	0.
1736	6.9451e+005
1736	5.6952e+005
1737	2.4879e+005
1737	7.0858e+005
1738	4.8541e+005
1738	6.7793e+005
1739	3.6298e+005
1739	7.8496e+005
1740	1.2887e+006
1740	1.7706e+006
1741	1.2391e+006
1741	9.8496e+005
1742	1.1169e+006
1742	1.0474e+006
1743	1.0425e+006
1743	1.8008e+006
1744	5.9556e+005
1744	7.9319e+005
1745	2.871e+006
1745	1.343e+006
1746	1.3627e+006
1746	1.6723e+006
1747	2.695e+006
1747	1.8495e+006
1748	1.5247e+006
1748	2.1732e+006
1749	7.4866e+005
1749	8.544e+005
1750	1.0134e+006
1750	1.0851e+006
1751	1.0051e+006
1751	1.6046e+006
1752	1.0866e+006
1752	1.4107e+006
1753	1.1791e+006
1753	2.4039e+006
1754	1.1619e+006
1754	1.6274e+006
1755	9.6567e+005
1755	1.4243e+006
1756	1.6539e+006
1756	1.7735e+006
1757	9.5361e+005
1757	1.7283e+006
1758	1.4108e+006
1758	9.1144e+005
1759	1.5849e+006
1759	2.7899e+005
1760	9.7865e+005
1760	1.3712e+006
1761	1.366e+006
1761	9.4508e+005
1762	3.8368e+005
1762	1.5775e+006
1763	1.0782e+006
1763	1.2374e+006
1764	2.3365e+005
1764	1.4986e+005
1765	1.907e+005
1765	2.6378e+005
1766	1.4177e+005
1766	1.1588e+005
1767	9.4027e+005
1767	1.4509e+006
1768	4.9024e+005
1768	1.496e+006
1769	7.205e+005
1769	1.1759e+006
1770	4.6101e+005
1770	5.0028e+005
1771	1.2343e+006
1771	1.0661e+006
1772	9.4317e+005
1772	1.3579e+006
1773	1.3598e+006
1773	2.1243e+006
1774	7.6757e+005
1774	8.3025e+005
1775	1.2286e+006
1775	1.128e+006
1776	1.1567e+006
1776	1.5762e+006
1777	2.1901e+006
1777	1.9307e+006
1778	1.7546e+006
1778	1.8399e+006
1779	2.2126e+006
1779	1.5035e+006
1780	7.028e+005
1780	8.0527e+005
1781	4.6067e+005
1781	5.484e+005
1782	1.14e+006
1782	8.4907e+005
1783	6.2111e+005
1783	8.7723e+005
1784	2.0348e+006
1784	1.5851e+006
1785	1.0641e+006
1785	6.1055e+005
1786	1.3662e+006
1786	1.2961e+006
1787	1.0936e+006
1787	6.8246e+005
1788	5.659e+005
1788	8.769e+005
1789	1.2631e+006
1789	7.4248e+005
1790	1.4196e+006
1790	1.6145e+006
1791	1.0925e+006
1791	8.0664e+005
1792	1.1037e+006
1792	6.1863e+005
1793	8.8218e+005
1793	9.0873e+005
1794	8.9234e+005
1794	6.2694e+005
1795	2.5298e+006
1795	4.7116e+005
1796	1.2799e+006
1796	1.0395e+006
1797	1.7305e+006
1797	1.3514e+006
1798	8.9352e+005
1798	7.2628e+005
1799	9.8221e+005
1799	9.0135e+005
1800	1.2837e+006
1800	3.1633e+005
1801	1.0192e+006
1801	3.9139e+005
1802	6.2232e+005
1802	7.0785e+005
1803	7.936e+005
1803	3.2454e+005
1804	1.1704e+006
1804	2.412e+005
1805	1.5329e+006
1805	9.8589e+005
1806	1.717e+006
1806	1.6943e+006
1807	1.6644e+006
1807	1.0014e+006
1808	1.9394e+006
1808	9.0415e+005
1809	8.3433e+005
1809	1.6849e+006
1810	1.2028e+006
1810	9.4016e+005
1811	4.0534e+005
1811	8.0311e+005
1812	4.403e+005
1812	1.4476e+006
1813	1.106e+006
1813	1.1213e+006
1814	9.057e+005
1814	9.988e+005
1815	1.8399e+006
1815	7.2653e+005
1816	1.8749e+006
1816	7.8968e+005
1817	1.657e+006
1817	1.1761e+006
1818	1.0272e+006
1818	2.0538e+006
1819	1.1663e+006
1819	9.4641e+005
1820	1.356e+006
1820	1.4139e+006
1821	1.1877e+006
1821	1.424e+006
1822	2.1432e+006
1822	1.9887e+006
1823	2.4115e+006
1823	2.3549e+006
1824	2.7302e+006
1824	1.2695e+006
1825	2.5814e+006
1825	1.7917e+006
1826	3.1621e+006
1826	3.5561e+006
1827	2.338e+006
1827	1.3731e+006
1828	2.5202e+006
1828	2.2177e+006
1829	9.2115e+005
1829	1.2803e+006
1830	2.0719e+006
1830	2.1924e+006
1831	3.2458e+006
1831	3.5884e+006
1832	1.2421e+006
1832	8.5906e+005
1833	2.2318e+006
1833	2.5989e+006
1834	3.3787e+006
1834	3.157e+006
1835	3.5395e+006
1835	3.9472e+006
1836	2.1473e+006
1836	2.7828e+006
1837	3.7768e+006
1837	3.7449e+006
1838	1.9545e+006
1838	2.8466e+006
1839	2.9338e+006
1839	3.5197e+006
1840	2.9302e+006
1840	2.2841e+006
1841	1.4884e+006
1841	1.4295e+006
1842	1.8456e+006
1842	2.1002e+006
1843	1.5829e+006
1843	3.4383e+006
1844	2.1858e+006
1844	1.854e+006
1845	1.7319e+006
1845	1.7247e+006
1846	2.6479e+006
1846	3.6717e+006
1847	3.6332e+006
1847	2.2944e+006
1848	4.0612e+006
1848	3.7871e+006
1849	2.8041e+006
1849	3.6351e+006
1850	5.4456e+006
1850	4.5984e+006
1851	3.4342e+006
1851	6.0533e+006
1852	4.4065e+006
1852	3.0211e+006
1853	1.8994e+006
1853	1.7105e+006
1854	2.2921e+006
1854	2.8127e+006
1855	2.254e+006
1855	2.16e+006
1856	2.2487e+006
1856	2.3675e+006
1857	3.5064e+006
1857	3.7271e+006
1858	4.2784e+006
1858	3.176e+006
1859	2.2047e+006
1859	2.332e+006
1860	4.4936e+006
1860	3.779e+006
1861	3.0444e+006
1861	2.0482e+006
1862	6.5626e+006
1862	5.4867e+006
1863	3.9307e+006
1863	3.9516e+006
1864	5.4579e+006
1864	6.3962e+006
1865	2.4486e+006
1865	2.6581e+006
1866	4.6538e+006
1866	4.491e+006
1867	5.4885e+006
1867	4.9603e+006
1868	4.5117e+006
1868	4.8186e+006
1869	2.8864e+006
1869	1.9056e+006
1870	4.9479e+006
1870	4.7626e+006
1871	2.4547e+006
1871	2.9189e+006
1872	6.4004e+006
1872	6.3843e+006
1873	2.9718e+006
1873	3.2938e+006
1874	4.6262e+006
1874	5.5984e+006
1875	5.2329e+006
1875	5.1017e+006
1876	3.9976e+006
1876	4.1809e+006
1877	3.0162e+006
1877	2.7679e+006
1878	2.6249e+006
1878	1.4821e+006
1879	2.9408e+006
1879	2.7601e+006
1880	2.1782e+006
1880	3.0481e+006
1881	4.043e+006
1881	2.9243e+006
1882	8.3742e+005
1882	1.2737e+006
1883	2.3394e+006
1883	3.5217e+006
1884	2.0949e+006
1884	1.9983e+006
1885	1.3077e+006
1885	2.032e+006
1886	2.9637e+006
1886	3.0612e+006
1887	4.8112e+006
1887	2.1646e+006
1888	1.1487e+006
1888	1.7138e+006
1889	3.7358e+006
1889	2.3004e+006
1890	4.8783e+006
1890	4.129e+006
1891	4.8368e+006
1891	2.5315e+006
1892	1.1497e+006
1892	6.684e+005
1893	1.3711e+006
1893	1.0489e+006
1894	2.1786e+006
1894	1.9437e+006
1895	1.7286e+006
1895	1.7921e+006
1896	1.3787e+006
1896	1.1661e+006
1897	1.1467e+006
1897	9.1947e+005
1898	1.7983e+006
1898	1.6195e+006
1899	1.6789e+006
1899	1.6922e+006
1900	4.3189e+006
1900	3.7661e+006
1901	3.1414e+006
1901	3.48e+006
1902	1.4802e+006
1902	2.4289e+006
1903	8.3034e+005
1903	9.4407e+005
1904	8.6654e+005
1904	1.1474e+006
1905	4.0954e+006
1905	4.1067e+006
1906	2.5186e+006
1906	2.9545e+006
1907	2.4456e+006
1907	1.9077e+006
1908	1.6335e+006
1908	1.1579e+006
1909	2.1298e+006
1909	1.3749e+006
1910	1.3339e+006
1910	1.639e+006
1911	3.7524e+006
1911	4.4221e+006
1912	5.9497e+005
1912	2.0342e+006
1913	2.681e+006
1913	1.7535e+006
1914	1.6629e+006
1914	1.443e+006
1915	1.7042e+006
1915	9.1271e+005
1916	1.4423e+006
1916	6.2338e+005
1917	2.0741e+006
1917	1.1872e+006
1918	1.927e+006
1918	8.4705e+005
1919	4.1188e+006
1919	4.202e+006
1920	3.8064e+006
1920	3.4394e+006
1921	2.9829e+006
1921	1.1103e+006
1922	1.5079e+006
1922	2.1751e+006
1923	3.6815e+006
1923	3.5416e+006
1924	4.856e+006
1924	5.4477e+006
1925	4.669e+006
1925	6.0582e+006
1926	4.9777e+006
1926	5.612e+006
1927	3.8541e+006
1927	4.5185e+006
1928	5.5357e+006
1928	4.6713e+006
1929	8.0648e+006
1929	7.4732e+006
1930	2.8162e+006
1930	3.0013e+006
1931	7.7054e+006
1931	8.0828e+006
1932	4.253e+006
1932	3.333e+006
1933	1.6319e+006
1933	4.522e+006
1934	4.5094e+006
1934	4.255e+006
1935	4.3256e+006
1935	4.4552e+006
1936	5.3027e+006
1936	5.352e+006
1937	4.269e+006
1937	4.3589e+006
1938	4.1673e+006
1938	4.1413e+006
1939	1.8302e+006
1939	3.0439e+006
1940	3.4947e+006
1940	3.1681e+006
1941	3.4442e+006
1941	2.336e+006
1942	4.3153e+006
1942	3.3969e+006
1943	2.8765e+006
1943	3.4222e+006
1944	3.2406e+006
1944	3.3199e+006
1945	3.9357e+006
1945	3.2933e+006
1946	2.6969e+006
1946	2.4583e+006
1947	1.9017e+006
1947	5.3141e+006
1948	3.145e+006
1948	3.1207e+006
1949	3.6339e+006
1949	3.8415e+006
1950	3.1018e+006
1950	2.3831e+006
1951	3.6936e+006
1951	3.8366e+006
1952	2.8338e+006
1952	3.2303e+006
1953	6.7916e+006
1953	7.0438e+006
1954	3.1134e+006
1954	2.9282e+006
1955	5.8485e+006
1955	5.6909e+006
1956	5.3037e+006
1956	5.2849e+006
1957	4.4609e+006
1957	4.1827e+006
1958	6.8053e+006
1958	6.238e+006
1959	4.4153e+006
1959	4.4442e+006
1960	2.2868e+006
1960	1.3101e+006
1961	2.088e+006
1961	8.8518e+005
1962	2.0841e+006
1962	1.962e+006
1963	4.8547e+006
1963	3.9137e+006
1964	1.7293e+006
1964	1.5195e+006
1965	3.1072e+006
1965	2.4391e+006
1966	1.629e+006
1966	2.6362e+006
1967	9.2395e+005
1967	1.7981e+006
1968	4.7605e+005
1968	1.2619e+006
1969	7.016e+005
1969	1.7231e+006
1970	2.0539e+006
1970	2.3597e+006
1971	2.0403e+006
1971	1.8641e+006
1972	2.2618e+006
1972	1.6061e+006
1973	2.5508e+006
1973	2.298e+006
1974	8.4345e+005
1974	1.0263e+006
1975	1.204e+006
1975	1.2982e+006
1976	1.2042e+006
1976	1.2468e+006
1977	2.5559e+006
1977	2.3455e+006
1978	2.312e+006
1978	1.8737e+006
1979	5.0742e+006
1979	5.5677e+006
1980	5.6763e+006
1980	8.8213e+006
1981	5.5163e+006
1981	5.6555e+006
1982	5.8597e+006
1982	4.2204e+006
1983	4.1964e+006
1983	3.8102e+006
1984	3.0239e+006
1984	2.8696e+006
1985	6.4314e+005
1985	5.2757e+005
1986	7.3861e+005
1986	8.9917e+005
1987	1.5272e+006
1987	1.0742e+006
1988	2.3822e+006
1988	2.7113e+006
1989	8.7594e+005
1989	8.738e+005
1990	9.5232e+005
1990	9.4436e+005
1991	7.7492e+005
1991	1.6208e+006
1992	8.7859e+005
1992	5.7446e+005
1993	3.3873e+006
1993	2.9728e+006
1994	1.7746e+006
1994	1.1186e+006
1995	4.0057e+006
1995	4.1329e+006
1996	1.3692e+006
1996	1.4775e+006
1997	1.2657e+006
1997	9.3887e+005
1998	3.034e+006
1998	2.8081e+006
1999	1.1914e+006
1999	4.0995e+005
2000	1.7999e+006
2000	1.7168e+006
2001	2.0882e+006
2001	1.0741e+006
2002	2.5281e+006
2002	1.3885e+006
2003	1.6403e+006
2003	1.9615e+006
2004	1.2205e+006
2004	2.6109e+006
2005	3.5409e+006
2005	4.2165e+006
2006	2.049e+006
2006	3.5724e+006
2007	2.9155e+006
2007	2.4918e+006
2008	1.7231e+006
2008	2.6245e+006
2009	2.5533e+006
2009	3.3203e+006
2010	5.0334e+006
2010	5.3144e+006
2011	5.6185e+006
2011	4.4751e+006
2012	5.4525e+006
2012	4.7334e+006
2013	5.3488e+006
2013	5.7218e+006
2014	3.1225e+006
2014	2.4874e+006
2015	1.7511e+006
2015	2.532e+006
2016	3.1639e+006
2016	3.7667e+006
2017	6.5602e+006
2017	3.7425e+006
2018	3.2329e+006
2018	3.5308e+006
2019	2.502e+006
2019	2.0189e+006
2020	2.3505e+006
2020	2.6723e+006
2021	2.8765e+006
2021	3.076e+006
2022	4.6925e+006
2022	4.6354e+006
2023	6.2666e+006
2023	6.8343e+006
2024	3.9223e+006
2024	3.0265e+006
2025	2.818e+006
2025	4.4784e+006
2026	6.0674e+006
2026	6.4937e+006
2027	4.1372e+006
2027	3.5918e+006
2028	3.0859e+006
2028	3.7236e+006
2029	4.9282e+006
2029	4.5303e+006
2030	2.7154e+006
2030	4.0374e+006
2031	3.8361e+006
2031	4.3022e+006
2032	2.5537e+006
2032	3.359e+006
2033	3.8752e+006
2033	3.637e+006
2034	4.327e+006
2034	4.565e+006
2035	7.2664e+006
2035	8.1732e+006
2036	3.242e+006
2036	4.3263e+006
2037	5.329e+006
2037	4.5615e+006
2038	3.4119e+006
2038	2.5322e+006
2039	7.3207e+006
2039	6.296e+006
2040	4.5595e+006
2040	5.0596e+006
2041	3.3457e+006
2041	3.4947e+006
2042	6.6553e+006
2042	7.3312e+006
2043	2.7005e+005
2043	3.4154e+006
2044	2.4659e+006
2044	1.7564e+006
2045	1.9539e+006
2045	2.051e+006
2046	3.1191e+006
2046	2.9793e+006
2047	2.6687e+006
2047	2.1769e+006
2048	3.3958e+006
2048	2.7075e+006
2049	6.528e+005
2049	1.1709e+006
2050	1.6172e+006
2050	1.7877e+006
2051	1.8614e+006
2051	1.1225e+006
2052	4.0243e+006
2052	4.1198e+006
2053	4.4214e+006
2053	4.8398e+006
2054	5.1668e+006
2054	5.4235e+006
2055	3.9437e+006
2055	3.3135e+006
2056	1.6033e+006
2056	1.066e+006
2057	2.3994e+006
2057	2.6267e+006
2058	3.1192e+006
2058	3.495e+006
2059	2.4128e+006
2059	2.2034e+006
2060	5.5614e+006
2060	3.9381e+006
2061	2.335e+006
2061	1.7251e+006
2062	5.3607e+006
2062	4.4786e+006
2063	3.969e+006
2063	4.3747e+006
2064	5.7254e+006
2064	6.0304e+006
2065	4.3388e+006
2065	4.7168e+006
2066	9.5061e+005
2066	8.5553e+005
2067	1.5408e+006
2067	1.1785e+006
2068	1.4599e+006
2068	9.6573e+005
2069	1.2337e+006
2069	1.272e+006
2070	2.481e+006
2070	2.2049e+006
2071	1.6073e+006
2071	2.6688e+006
2072	1.026e+006
2072	1.0733e+006
2073	1.1604e+006
2073	1.9029e+006
2074	6.2667e+005
2074	9.2897e+005
2075	2.2088e+006
2075	2.001e+006
2076	1.8463e+006
2076	1.0391e+006
2077	4.4653e+006
2077	3.0187e+006
2078	1.8583e+006
2078	9.9496e+005
2079	1.3642e+006
2079	1.265e+006
2080	1.2751e+006
2080	1.3941e+006
2081	1.7101e+006
2081	9.3435e+005
2082	1.0276e+006
2082	1.086e+006
2083	1.4515e+006
2083	1.9385e+006
2084	7.6223e+005
2084	1.0982e+006
2085	1.7592e+006
2085	2.6928e+006
2086	4.4376e+006
2086	4.6457e+006
2087	3.3706e+006
2087	3.5951e+006
2088	2.2746e+006
2088	2.3015e+006
2089	1.7042e+006
2089	9.8911e+005
2090	7.872e+005
2090	1.6942e+006
2091	1.8902e+006
2091	1.8705e+006
2092	1.6949e+006
2092	1.5931e+006
2093	4.3709e+006
2093	3.7272e+006
2094	2.843e+006
2094	3.0618e+006
2095	3.2497e+006
2095	4.0513e+006
2096	2.8001e+006
2096	3.4186e+006
2097	5.5405e+006
2097	3.9252e+006
2098	3.863e+006
2098	4.2677e+006
2099	2.4884e+006
2099	2.4107e+006
2100	2.8042e+006
2100	2.5827e+006
2101	2.7839e+006
2101	2.3071e+006
2102	4.3073e+006
2102	3.9126e+006
2103	5.0918e+006
2103	4.1597e+006
2104	4.3324e+006
2104	4.5509e+006
2105	4.2807e+006
2105	3.714e+006
2106	5.8373e+006
2106	5.3203e+006
2107	2.2926e+006
2107	1.6432e+006
2108	1.3613e+006
2108	1.6957e+006
2109	5.0382e+006
2109	4.5659e+006
2110	1.7197e+006
2110	2.8126e+006
2111	3.1973e+006
2111	3.07e+006
2112	4.6932e+006
2112	4.3281e+006
2113	3.289e+006
2113	2.7262e+006
2114	2.8089e+006
2114	2.3784e+006
2115	3.0174e+006
2115	2.9367e+006
2116	3.1381e+006
2116	5.9844e+006
2117	1.744e+006
2117	3.3689e+006
2118	1.9924e+006
2118	5.6916e+006
2119	9.3887e+005
2119	2.2871e+006
2120	1.5431e+006
2120	2.5803e+006
2121	2.9069e+006
2121	3.1852e+006
2122	4.7913e+006
2122	5.035e+006
2123	3.1115e+006
2123	3.9099e+006
2124	5.7712e+006
2124	5.191e+006
2125	4.3763e+006
2125	4.5552e+006
2126	3.78e+006
2126	3.3074e+006
2127	7.7097e+006
2127	6.7987e+006
2128	3.3851e+006
2128	3.2648e+006
2129	2.4219e+006
2129	3.1597e+006
2130	4.4823e+006
2130	4.3328e+006
2131	3.5088e+006
2131	3.4615e+006
2132	2.5331e+006
2132	2.6336e+006
2133	2.6756e+006
2133	4.6126e+006
2134	4.5985e+006
2134	4.0291e+006
2135	5.4869e+006
2135	3.2795e+006
2136	2.9221e+006
2136	3.263e+006
2137	3.8781e+006
2137	3.1877e+006
2138	4.5663e+006
2138	4.7961e+006
2139	6.1839e+006
2139	5.2544e+006
2140	4.7503e+006
2140	4.5796e+006
2141	4.2138e+006
2141	4.4781e+006
2142	3.6367e+006
2142	2.5327e+006
2143	5.4121e+006
2143	6.1556e+006
2144	4.8834e+006
2144	5.3342e+006
2145	4.3772e+006
2145	5.619e+006
2146	3.856e+006
2146	3.6748e+006
2147	4.2298e+006
2147	3.4171e+006
2148	6.0323e+006
2148	7.0139e+006
2149	3.352e+006
2149	4.6951e+006
2150	1.9586e+006
2150	2.965e+006
2151	2.6524e+006
2151	3.997e+006
2152	4.2674e+006
2152	4.9295e+006
2153	3.6332e+006
2153	3.6583e+006
2154	6.3991e+006
2154	7.8087e+006
2155	1.4862e+006
2155	2.341e+006
2156	2.5103e+006
2156	2.4972e+006
2157	2.6084e+006
2157	2.2825e+006
2158	6.8946e+005
2158	9.4873e+005
2159	3.2097e+006
2159	3.9298e+006
2160	1.0581e+006
2160	1.1179e+006
2161	4.9995e+006
2161	4.8722e+006
2162	1.1216e+006
2162	1.5578e+006
2163	1.4672e+006
2163	1.642e+006
2164	7.215e+005
2164	1.1545e+006
2165	2.2339e+006
2165	2.2273e+006
2166	7.0784e+005
2166	1.2962e+006
2167	2.4093e+006
2167	1.5593e+006
2168	1.2023e+006
2168	1.7719e+006
2169	1.5405e+006
2169	1.8318e+006
2170	1.2963e+006
2170	1.3313e+006
2171	6.08e+005
2171	9.5543e+005
2172	1.4792e+006
2172	1.4424e+006
2173	1.5866e+006
2173	1.7109e+006
2174	1.0016e+006
2174	1.0452e+006
2175	1.4642e+006
2175	1.6311e+006
2176	1.2462e+006
2176	1.1732e+006
2177	5.1841e+005
2177	5.1567e+005
2178	1.3623e+006
2178	9.1927e+005
2179	9.4954e+005
2179	9.4891e+005
2180	5.7172e+005
2180	6.0705e+005
2181	8.452e+005
2181	1.3069e+006
2182	5.5565e+006
2182	6.1845e+006
2183	7.1931e+006
2183	3.0176e+006
2184	5.8641e+006
2184	3.7541e+006
2185	4.8068e+006
2185	2.5671e+006
2186	4.1993e+006
2186	6.8116e+006
2187	4.2848e+006
2187	4.3723e+006
2188	1.779e+006
2188	3.0357e+006
2189	2.9994e+006
2189	4.4494e+006
2190	2.2711e+006
2190	2.2706e+006
2191	2.8956e+006
2191	2.3705e+006
2192	5.1833e+006
2192	3.7269e+006
2193	4.5203e+006
2193	5.2298e+006
2194	5.069e+006
2194	4.621e+006
2195	3.0476e+006
2195	1.8265e+006
2196	2.9768e+006
2196	8.8751e+005
2197	2.2371e+006
2197	2.6621e+006
2198	1.8896e+006
2198	2.3693e+006
2199	2.9137e+006
2199	2.9868e+006
2200	1.9672e+006
2200	3.0977e+006
2201	3.2444e+006
2201	4.5499e+006
2202	5.9588e+006
2202	3.4551e+006
2203	2.8138e+006
2203	3.2525e+006
2204	3.2052e+006
2204	3.432e+006
2205	4.0953e+006
2205	3.2077e+006
2206	7.6136e+006
2206	6.8494e+006
2207	3.6637e+006
2207	4.2034e+006
2208	2.8182e+006
2208	2.5819e+006
2209	3.0341e+006
2209	3.4906e+006
2210	3.3105e+006
2210	2.7378e+006
2211	4.1113e+006
2211	4.1876e+006
2212	3.6553e+006
2212	2.8913e+006
2213	2.2743e+006
2213	2.9287e+006
2214	1.5635e+006
2214	3.3897e+006
2215	4.7782e+006
2215	3.7775e+006
2216	4.8124e+006
2216	4.9204e+006
2217	4.7245e+006
2217	4.6324e+006
2218	3.4296e+006
2218	3.2247e+006
2219	4.3691e+006
2219	3.5995e+006
2220	5.8013e+006
2220	7.2801e+006
2221	1.4525e+006
2221	2.7269e+006
2222	8.4691e+005
2222	1.8239e+006
2223	1.0382e+006
2223	1.8422e+006
2224	1.0964e+006
2224	1.8174e+006
2225	4.2403e+006
2225	9.6136e+006
2226	4.564e+006
2226	4.1089e+006
2227	3.6737e+006
2227	2.8114e+006
2228	1.8837e+006
2228	3.5291e+006
2229	2.8744e+006
2229	2.869e+006
2230	2.7955e+006
2230	2.7155e+006
2231	5.217e+006
2231	4.7772e+006
2232	4.4815e+006
2232	4.1246e+006
2233	5.5471e+006
2233	6.4344e+006
2234	2.432e+006
2234	3.329e+006
2235	4.0476e+006
2235	2.8919e+006
2236	1.8838e+006
2236	3.1794e+006
2237	2.1395e+006
2237	1.7125e+006
2238	4.5999e+006
2238	2.9916e+006
2239	3.2562e+006
2239	4.6741e+006
2240	1.4826e+006
2240	1.3566e+006
2241	2.7015e+006
2241	2.5003e+006
2242	3.8849e+006
2242	4.1304e+006
2243	2.3256e+006
2243	3.2213e+006
2244	3.2652e+006
2244	2.8208e+006
2245	1.5351e+006
2245	1.3484e+006
2246	1.5374e+006
2246	7.5408e+005
2247	1.9219e+006
2247	1.904e+006
2248	1.2732e+006
2248	1.5639e+006
2249	1.8405e+006
2249	1.5493e+006
2250	5.1565e+006
2250	3.269e+006
2251	9.9854e+005
2251	4.937e+005
2252	8.0547e+005
2252	8.8876e+005
2253	6.537e+005
2253	3.5541e+005
2254	6.2961e+005
2254	7.918e+005
2255	8.0656e+005
2255	5.8264e+005
2256	2.486e+006
2256	1.201e+006
2257	1.2363e+006
2257	1.6147e+006
2258	1.0289e+006
2258	1.0954e+006
2259	1.5253e+006
2259	2.4788e+006
2260	1.803e+006
2260	1.9166e+006
2261	1.9884e+006
2261	2.5397e+006
2262	2.741e+006
2262	4.1046e+006
2263	6.3223e+006
2263	2.4524e+006
2264	2.6165e+006
2264	3.2508e+006
2265	5.9465e+006
2265	6.8582e+006
2266	4.0829e+006
2266	4.6963e+006
2267	2.3773e+006
2267	1.931e+006
2268	0.
2268	0.
2269	7.1563e+005
2269	8.678e+005
2270	0.
2270	0.
2271	2.4172e+006
2271	2.2505e+006
2272	3.1485e+006
2272	3.2558e+006
2273	1.6201e+006
2273	1.5881e+006
2274	1.1181e+006
2274	1.7863e+006
2275	3.1286e+006
2275	3.7233e+006
2276	2.3452e+006
2276	2.4582e+006
2277	2.3799e+006
2277	3.0906e+006
2278	1.7174e+006
2278	1.7949e+006
2279	2.9717e+006
2279	3.1945e+006
2280	3.5774e+006
2280	3.2639e+006
2281	4.0573e+006
2281	3.1471e+006
2282	2.0507e+006
2282	1.9804e+006
2283	4.6024e+006
2283	3.6656e+006
2284	1.9426e+006
2284	1.4273e+006
2285	2.0208e+006
2285	1.4727e+006
2286	1.2091e+006
2286	1.8327e+006
2287	2.5793e+006
2287	3.6127e+006
2288	1.9214e+006
2288	1.1198e+006
2289	0.
2289	0.
2290	0.
2290	0.
2291	0.
2291	0.
2292	0.
2292	0.
2293	1.4433e+006
2293	2.1176e+006
2294	0.
2294	0.
2295	12220
2295	12328
2296	1.644e+005
2296	61342
2297	0.
2297	0.
2298	5.8252e+005
2298	5.4418e+005
2299	0.
2299	0.
2300	0.
2300	0.
2301	8219.7
2301	6379.4
2302	2.9516e+005
2302	3.7638e+005
2303	0.
2303	0.
2304	0.
2304	0.
2305	0.
2305	0.
2306	0.
2306	0.
2307	0.
2307	0.
2308	0.
2308	0.
2309	0.
2309	0.
2310	0.
2310	0.
2311	0.
2311	0.
2312	0.
2312	0.
2313	0.
2313	0.
2314	0.
2314	0.
2315	0.
2315	0.
2316	0.
2316	0.
2317	1.9051e+005
2317	1.3454e+005
2318	3.3344e+005
2318	3.5297e+005
2319	0.
2319	0.
2320	0.
2320	0.
2321	0.
2321	0.
2322	0.
2322	0.
2323	0.
2323	0.
2324	0.
2324	0.
2325	0.
2325	0.
2326	0.
2326	0.
2327	0.
2327	0.
2328	0.
2328	0.
2329	0.
2329	0.
2330	0.
2330	0.
2331	0.
2331	0.
2332	0.
2332	0.
2333	0.
2333	0.
2334	0.
2334	0.
2335	0.
2335	0.
2336	0.
2336	0.
2337	0.
2337	0.
2338	0.
2338	0.
2339	0.
2339	0.
2340	0.
2340	0.
2341	0.
2341	0.
2342	0.
2342	0.
2343	0.
2343	0.
2344	0.
2344	0.
2345	0.
2345	0.
2346	0.
2346	0.
2347	0.
2347	0.
2348	0.
2348	0.
2349	0.
2349	0.
2350	0.
2350	0.
2351	0.
2351	0.
2352	0.
2352	0.
2353	0.
2353	0.
2354	0.
2354	0.
2355	0.
2355	0.
2356	0.
2356	0.
2357	0.
2357	0.
2358	0.
2358	0.
2359	0.
2359	0.
2360	0.
2360	0.
2361	0.
2361	0.
2362	0.
2362	0.
2363	0.
2363	0.
2364	0.
2364	0.
2365	0.
2365	0.
2366	0.
2366	0.
2367	0.
2367	0.
2368	0.
2368	0.
2369	0.
2369	0.
2370	0.
2370	0.
2371	0.
2371	0.
2372	0.
2372	0.
2373	0.
2373	0.
2374	0.
2374	0.
2375	0.
2375	0.
2376	0.
2376	0.
2377	0.
2377	0.
2378	0.
2378	0.
2379	0.
2379	0.
2380	0.
2380	0.
2381	0.
2381	0.
2382	0.
2382	0.
2383	0.
2383	0.
2384	0.
2384	0.
2385	0.
2385	0.
2386	0.
2386	0.
2387	0.
2387	0.
2388	0.
2388	0.
2389	0.
2389	0.
2390	0.
2390	0.
2391	0.
2391	0.
2392	0.
2392	0.
2393	0.
2393	0.
2394	0.
2394	0.
2395	0.
2395	0.
2396	0.
2396	0.
2397	0.
2397	0.
2398	0.
2398	0.
2399	0.
2399	0.
2400	0.
2400	0.
2401	0.
2401	0.
2402	0.
2402	0.
2403	0.
2403	0.
2404	0.
2404	0.
2405	0.
2405	0.
2406	0.
2406	0.
2407	0.
2407	0.
2408	0.
2408	0.
2409	0.
2409	0.
2410	0.
2410	0.
2411	0.
2411	0.
2412	0.
2412	0.
2413	6.2427e+005
2413	5.8748e+005
2414	6.437e+005
2414	4.616e+005
2415	4.6977e+005
2415	6.2105e+005
2416	3.8327e+005
2416	7.1215e+005
2417	1.187e+006
2417	1.3015e+006
2418	1.3894e+006
2418	1.168e+006
2419	1.5972e+006
2419	1.3991e+006
2420	1.0945e+006
2420	1.4061e+006
2421	1.4519e+006
2421	1.7688e+006
2422	1.9285e+006
2422	1.1181e+006
2423	1.068e+006
2423	2.0613e+006
2424	1.5376e+006
2424	1.9074e+006
2425	7.5491e+005
2425	2.8638e+005
2426	5.0949e+005
2426	7.2619e+005
2427	5.9609e+005
2427	8.6443e+005
2428	5.1422e+005
2428	1.0632e+006
2429	1.2015e+006
2429	1.3403e+006
2430	1.0379e+006
2430	1.4348e+006
2431	9.1098e+005
2431	6.985e+005
2432	2.1735e+006
2432	1.587e+006
2433	1.4237e+006
2433	1.5595e+006
2434	1.5416e+006
2434	1.411e+006
2435	1.067e+006
2435	1.2665e+006
2436	1.1566e+006
2436	1.8754e+006
2437	1.672e+006
2437	2.2538e+006
2438	1.8666e+006
2438	1.9167e+006
2439	2.0131e+006
2439	1.7937e+006
2440	1.4771e+006
2440	1.4998e+006
2441	1.0455e+006
2441	1.7202e+006
2442	1.3116e+006
2442	2.0093e+006
2443	1.2987e+006
2443	1.1815e+006
2444	7.8585e+005
2444	7.6579e+005
2445	1.7463e+006
2445	8.1406e+005
2446	1.1718e+006
2446	1.5696e+006
2447	1.0449e+006
2447	1.3916e+006
2448	2.3349e+006
2448	1.8575e+006
2449	1.4548e+006
2449	1.2358e+006
2450	1.4878e+006
2450	1.5075e+006
2451	2.815e+005
2451	1.3418e+006
2452	9.6583e+005
2452	5.3325e+005
2453	1.9287e+006
2453	2.0642e+006
2454	2.7401e+006
2454	2.552e+006
2455	1.0801e+006
2455	1.7847e+006
2456	2.1141e+006
2456	2.4531e+006
2457	4.1569e+006
2457	3.9577e+006
2458	1.5178e+006
2458	2.2781e+006
2459	3.6557e+006
2459	3.1127e+006
2460	2.4147e+006
2460	1.9391e+006
2461	1.912e+006
2461	1.7102e+006
2462	2.8217e+006
2462	3.1337e+006
2463	1.9397e+006
2463	2.6351e+006
2464	9.8685e+005
2464	1.538e+006
2465	1.1653e+006
2465	1.0033e+006
2466	2.7304e+006
2466	2.7396e+006
2467	3.3773e+006
2467	3.641e+006
2468	1.6528e+006
2468	7.4302e+005
2469	1.574e+006
2469	1.5082e+006
2470	3.1433e+006
2470	2.9754e+006
2471	2.957e+006
2471	3.2882e+006
2472	3.2017e+006
2472	3.7468e+006
2473	1.2832e+006
2473	1.2472e+006
2474	3.2501e+006
2474	3.7642e+006
2475	3.7163e+006
2475	2.9581e+006
2476	4.8402e+006
2476	6.0731e+006
2477	2.6927e+006
2477	1.4388e+006
2478	4.5142e+006
2478	5.1769e+006
2479	3.8331e+006
2479	2.6133e+006
2480	2.6812e+006
2480	1.9096e+006
2481	5.3311e+006
2481	5.4133e+006
2482	5.3595e+006
2482	6.6468e+006
2483	5.5001e+006
2483	5.0266e+006
2484	3.8021e+006
2484	3.1807e+006
2485	2.9162e+006
2485	4.1779e+006
2486	4.3642e+006
2486	4.318e+006
2487	2.3569e+006
2487	1.4017e+006
2488	1.8331e+006
2488	1.0077e+006
2489	5.2897e+006
2489	6.1143e+006
2490	3.2442e+006
2490	2.0886e+006
2491	2.1704e+006
2491	2.2185e+006
2492	4.1112e+006
2492	3.7984e+006
2493	9.092e+005
2493	2.3532e+006
2494	2.4575e+006
2494	1.739e+006
2495	3.9253e+006
2495	3.5806e+006
2496	1.2744e+006
2496	1.6303e+006
2497	1.6673e+006
2497	1.2033e+006
2498	5.9841e+006
2498	4.9442e+006
2499	2.519e+006
2499	3.3246e+006
2500	3.7063e+006
2500	3.8485e+006
2501	5.1207e+006
2501	4.3741e+006
2502	4.3981e+006
2502	4.8834e+006
2503	3.2144e+006
2503	3.6814e+006
2504	2.2494e+006
2504	2.0637e+006
2505	4.9213e+006
2505	3.9409e+006
2506	1.4295e+006
2506	1.1727e+006
2507	1.6399e+006
2507	2.2414e+006
2508	3.1519e+006
2508	1.7406e+006
2509	3.6173e+006
2509	2.1725e+006
2510	2.4657e+006
2510	2.3756e+006
2511	2.286e+006
2511	1.2205e+006
2512	1.4819e+006
2512	1.5773e+006
2513	2.8464e+006
2513	3.3493e+006
2514	4.1409e+006
2514	3.9462e+006
2515	6.8029e+006
2515	6.3365e+006
2516	3.18e+006
2516	3.8866e+006
2517	4.5919e+006
2517	5.0722e+006
2518	2.8442e+006
2518	3.9456e+006
2519	4.0836e+006
2519	4.5121e+006
2520	3.3666e+006
2520	2.7347e+006
2521	2.0359e+006
2521	1.6621e+006
2522	2.4612e+006
2522	3.2806e+006
2523	4.2698e+006
2523	2.509e+006
2524	3.4025e+006
2524	3.7646e+006
2525	2.9077e+006
2525	2.4227e+006
2526	5.5172e+006
2526	3.9958e+006
2527	4.8076e+006
2527	9.126e+006
2528	2.3583e+006
2528	2.3222e+006
2529	2.5165e+006
2529	4.8105e+006
2530	3.7779e+006
2530	6.9984e+006
2531	2.6388e+006
2531	2.9464e+006
2532	4.2574e+006
2532	3.555e+006
2533	5.619e+006
2533	4.8319e+006
2534	3.9517e+006
2534	4.3088e+006
2535	3.0121e+006
2535	2.5192e+006
2536	4.5335e+006
2536	3.9224e+006
2537	1.9012e+006
2537	2.783e+006
2538	3.9221e+006
2538	4.3057e+006
2539	4.664e+006
2539	3.0585e+006
2540	3.8184e+006
2540	4.0487e+006
2541	4.4471e+006
2541	3.7754e+006
2542	1.9837e+006
2542	1.2755e+006
2543	2.6116e+006
2543	2.4323e+006
2544	6.728e+006
2544	4.9804e+006
2545	2.197e+006
2545	2.9043e+006
2546	1.4472e+006
2546	1.4194e+006
2547	1.1642e+006
2547	1.1071e+006
2548	1.8887e+006
2548	1.8876e+006
2549	1.9641e+006
2549	2.2555e+006
2550	4.341e+006
2550	3.6423e+006
2551	5.2611e+006
2551	5.8019e+006
2552	1.7549e+006
2552	2.1995e+006
2553	1.1739e+006
2553	1.3384e+006
2554	2.2651e+006
2554	3.3351e+006
2555	4.3648e+006
2555	5.2725e+006
2556	3.747e+006
2556	3.2306e+006
2557	3.2362e+006
2557	2.5349e+006
2558	7.6255e+006
2558	6.5065e+006
2559	1.8862e+006
2559	1.8807e+006
2560	1.8686e+006
2560	3.1601e+006
2561	1.993e+006
2561	1.7615e+006
2562	5.2525e+006
2562	8.1304e+006
2563	5.7934e+006
2563	4.0124e+006
2564	2.1208e+006
2564	2.5581e+006
2565	1.2327e+006
2565	1.687e+006
2566	1.087e+006
2566	6.3178e+005
2567	5.2726e+006
2567	5.7052e+006
2568	5.5261e+006
2568	5.5275e+006
2569	4.6959e+006
2569	4.5467e+006
2570	3.1192e+006
2570	3.7535e+006
2571	4.4638e+006
2571	4.3965e+006
2572	1.0588e+006
2572	1.321e+006
2573	5.3312e+006
2573	4.0104e+006
2574	2.0141e+006
2574	1.8923e+006
2575	2.776e+006
2575	3.199e+006
2576	5.4498e+006
2576	3.456e+006
2577	2.8566e+006
2577	3.4516e+006
2578	1.3665e+006
2578	1.1883e+006
2579	9.2677e+005
2579	9.8751e+005
2580	2.2414e+006
2580	1.2279e+006
2581	2.0148e+006
2581	3.1806e+006
2582	1.3907e+006
2582	1.0019e+006
2583	2.6914e+006
2583	1.4045e+006
2584	1.4314e+006
2584	1.7791e+006
2585	2.2171e+006
2585	1.7107e+006
2586	2.0864e+006
2586	2.8618e+006
2587	2.1845e+006
2587	2.5753e+006
2588	3.5977e+006
2588	4.0804e+006
2589	4.9224e+006
2589	4.1906e+006
2590	3.6191e+006
2590	4.376e+006
2591	1.6403e+006
2591	2.0379e+006
2592	4.0938e+006
2592	3.8398e+006
2593	4.1636e+006
2593	5.2467e+006
2594	4.0133e+006
2594	3.4585e+006
2595	7.2933e+006
2595	7.6699e+006
2596	2.7786e+006
2596	2.4082e+006
2597	4.7799e+006
2597	4.7917e+006
2598	3.6813e+006
2598	4.612e+006
2599	1.6893e+006
2599	2.7015e+006
2600	3.1263e+006
2600	2.9059e+006
2601	2.4144e+006
2601	2.4375e+006
2602	2.0308e+006
2602	1.9257e+006
2603	3.9443e+006
2603	3.6084e+006
2604	4.2308e+006
2604	4.5974e+006
2605	3.1197e+006
2605	2.1157e+006
2606	5.3969e+006
2606	4.1593e+006
2607	4.1729e+006
2607	3.9637e+006
2608	1.5361e+006
2608	1.7839e+006
2609	4.4392e+006
2609	2.815e+006
2610	2.6622e+006
2610	2.8332e+006
2611	3.9224e+006
2611	5.379e+006
2612	2.7704e+006
2612	2.305e+006
2613	3.8496e+006
2613	4.6511e+006
2614	3.2428e+006
2614	4.0439e+006
2615	6.4067e+006
2615	4.9705e+006
2616	4.3586e+006
2616	4.8042e+006
2617	4.2464e+006
2617	4.1789e+006
2618	7.599e+006
2618	6.51e+006
2619	1.719e+006
2619	1.7517e+006
2620	2.1116e+006
2620	2.9343e+006
2621	2.4028e+006
2621	3.5141e+006
2622	4.339e+006
2622	3.3637e+006
2623	4.4275e+006
2623	2.4234e+006
2624	2.3471e+006
2624	2.3569e+006
2625	2.297e+006
2625	3.1606e+006
2626	2.9084e+006
2626	2.6382e+006
2627	4.0987e+006
2627	4.2343e+006
2628	1.6316e+006
2628	1.6117e+006
2629	4.6583e+006
2629	4.7629e+006
2630	5.3641e+006
2630	4.9852e+006
2631	1.8578e+006
2631	1.7714e+006
2632	3.0991e+006
2632	3.1042e+006
2633	1.3675e+006
2633	2.0745e+006
2634	9.4924e+005
2634	8.8744e+005
2635	1.7475e+006
2635	1.3646e+006
2636	2.8645e+006
2636	2.6869e+006
2637	3.8271e+006
2637	4.4995e+006
2638	4.1139e+006
2638	3.3677e+006
2639	6.9597e+006
2639	6.0661e+006
2640	5.212e+006
2640	4.0783e+006
2641	2.9624e+006
2641	2.9625e+006
2642	1.4524e+006
2642	1.6332e+006
2643	1.6231e+006
2643	1.2004e+006
2644	6.1871e+006
2644	6.2397e+006
2645	3.7044e+006
2645	4.4679e+006
2646	1.4662e+006
2646	1.3703e+006
2647	4.9889e+006
2647	5.9637e+006
2648	5.423e+006
2648	5.2739e+006
2649	2.2149e+006
2649	1.9897e+006
2650	5.7139e+005
2650	1.3843e+006
2651	5.891e+006
2651	6.1085e+006
2652	2.1146e+006
2652	2.3962e+006
2653	1.319e+006
2653	1.1564e+006
2654	4.5388e+006
2654	3.6662e+006
2655	2.3305e+006
2655	2.9255e+006
2656	3.4477e+006
2656	3.1573e+006
2657	3.1707e+006
2657	3.3831e+006
2658	3.4004e+006
2658	3.2337e+006
2659	2.695e+006
2659	2.6983e+006
2660	3.4276e+006
2660	3.5991e+006
2661	4.1555e+006
2661	5.0731e+006
2662	4.2747e+006
2662	4.4308e+006
2663	3.3565e+006
2663	3.4025e+006
2664	2.6044e+006
2664	2.4647e+006
2665	2.0341e+006
2665	1.1113e+006
2666	7.5046e+005
2666	1.2139e+006
2667	1.7837e+006
2667	4.1079e+006
2668	1.5298e+006
2668	1.4702e+006
2669	1.9761e+006
2669	3.0234e+006
2670	2.9698e+006
2670	2.3096e+006
2671	3.5261e+006
2671	4.0404e+006
2672	4.7779e+006
2672	5.7724e+006
2673	3.5526e+006
2673	3.3309e+006
2674	3.2022e+006
2674	2.9542e+006
2675	4.2726e+006
2675	4.216e+006
2676	1.9313e+006
2676	1.5846e+006
2677	2.6105e+006
2677	4.9848e+006
2678	4.3402e+006
2678	3.1116e+006
2679	3.705e+006
2679	2.2667e+006
2680	1.8348e+006
2680	2.0808e+006
2681	1.8487e+006
2681	1.2066e+006
2682	1.7664e+006
2682	3.7759e+006
2683	6.1108e+006
2683	5.4384e+006
2684	4.4218e+006
2684	5.0528e+006
2685	3.6805e+006
2685	3.972e+006
2686	4.5208e+006
2686	4.2788e+006
2687	2.0222e+006
2687	1.7993e+006
2688	5.0195e+006
2688	2.5191e+006
2689	2.8679e+006
2689	3.9738e+006
2690	3.4056e+006
2690	2.8899e+006
2691	1.8518e+006
2691	1.5574e+006
2692	3.2186e+006
2692	2.2418e+006
2693	1.6949e+006
2693	3.1143e+006
2694	2.1183e+006
2694	3.8658e+006
2695	2.0383e+006
2695	3.1128e+006
2696	4.143e+006
2696	4.0403e+006
2697	2.2089e+006
2697	1.9106e+006
2698	4.0127e+006
2698	3.6363e+006
2699	3.7615e+006
2699	1.8305e+006
2700	1.4067e+006
2700	9.9531e+005
2701	1.5141e+006
2701	2.1077e+006
2702	1.7361e+006
2702	1.3709e+006
2703	2.3602e+006
2703	2.634e+006
2704	2.1163e+006
2704	1.3889e+006
2705	6.1077e+006
2705	5.9334e+006
2706	4.0769e+006
2706	4.4939e+006
2707	2.9623e+006
2707	2.2811e+006
2708	2.0286e+006
2708	9.7664e+005
2709	4.0391e+006
2709	2.8298e+006
2710	4.0947e+006
2710	4.0712e+006
2711	5.3558e+006
2711	5.7097e+006
2712	3.2141e+006
2712	2.6612e+006
2713	4.0303e+006
2713	4.5151e+006
2714	3.5893e+006
2714	2.1553e+006
2715	3.3676e+005
2715	1.4765e+006
2716	4.2333e+006
2716	6.1264e+006
2717	3.7213e+006
2717	4.5409e+006
2718	4.7107e+006
2718	5.8835e+006
2719	3.5008e+006
2719	6.357e+006
2720	1.9488e+006
2720	7.2086e+005
2721	3.1859e+006
2721	1.4614e+006
2722	1.8611e+006
2722	2.1561e+006
2723	2.502e+006
2723	3.1245e+006
2724	1.0893e+006
2724	1.244e+006
2725	1.4448e+006
2725	2.6821e+006
2726	1.5667e+006
2726	2.0217e+006
2727	3.0145e+006
2727	2.7505e+006
2728	1.966e+006
2728	1.2064e+006
2729	3.2323e+006
2729	2.6058e+006
2730	4.3218e+006
2730	3.555e+006
2731	2.4188e+006
2731	1.614e+006
2732	8.7307e+006
2732	6.7155e+006
2733	3.7958e+006
2733	4.1528e+006
2734	5.0826e+006
2734	5.2969e+006
2735	2.7359e+006
2735	3.6968e+006
2736	4.5291e+006
2736	4.0534e+006
2737	4.7284e+006
2737	5.4753e+006
2738	4.1413e+006
2738	4.6696e+006
2739	5.3967e+006
2739	5.1895e+006
2740	2.8587e+006
2740	3.1796e+006
2741	3.0003e+006
2741	1.004e+007
2742	2.291e+006
2742	3.4099e+006
2743	5.3284e+006
2743	5.2011e+006
2744	2.2877e+006
2744	5.3315e+006
2745	4.0733e+006
2745	4.2045e+006
2746	3.9289e+006
2746	3.25e+006
2747	3.2073e+006
2747	2.5034e+006
2748	4.2724e+006
2748	3.0898e+006
2749	2.683e+006
2749	2.2549e+006
2750	5.069e+006
2750	4.2649e+006
2751	4.2945e+006
2751	4.501e+006
2752	4.3339e+006
2752	4.6068e+006
2753	3.3511e+006
2753	4.1104e+006
2754	3.4154e+006
2754	3.8584e+006
2755	4.8382e+006
2755	4.3322e+006
2756	3.2346e+006
2756	3.0143e+006
2757	1.5446e+006
2757	1.3495e+006
2758	9.6334e+005
2758	4.7672e+005
2759	2.6299e+006
2759	2.3944e+006
2760	2.0421e+006
2760	2.4005e+006
2761	1.5422e+006
2761	1.7783e+006
2762	7.5257e+005
2762	6.2082e+005
2763	3.339e+006
2763	2.1692e+006
2764	7.4092e+005
2764	1.5552e+006
2765	1.7563e+006
2765	1.8395e+006
2766	1.0168e+006
2766	1.8092e+006
2767	4.468e+006
2767	5.1103e+006
2768	5.5542e+006
2768	5.5309e+006
2769	4.5441e+006
2769	4.1793e+006
2770	2.7406e+006
2770	1.7308e+006
2771	3.7625e+006
2771	3.7024e+006
2772	4.6795e+006
2772	4.1491e+006
2773	4.1859e+006
2773	5.0334e+006
2774	5.0478e+006
2774	3.2286e+006
2775	4.706e+006
2775	2.132e+006
2776	7.8032e+006
2776	8.1553e+006
2777	7.0977e+006
2777	6.4047e+006
2778	1.3701e+006
2778	1.7909e+006
2779	0.
2779	0.
2780	0.
2780	0.
2781	2.9332e+006
2781	3.2878e+006
2782	3.6205e+005
2782	6.7592e+005
2783	2.0411e+006
2783	2.2456e+006
2784	3.6229e+005
2784	1.099e+006
2785	1.3036e+006
2785	2.0525e+006
2786	1.388e+006
2786	1.3667e+006
2787	4.9217e+006
2787	4.4924e+006
2788	6.9895e+005
2788	3.3413e+005
2789	2.8736e+006
2789	2.3254e+006
2790	1.9289e+006
2790	9.6632e+005
2791	9.8618e+005
2791	4.8037e+005
2792	8.9795e+005
2792	1.39e+006
2793	2.0255e+006
2793	2.604e+006
2794	1.4192e+006
2794	5.7131e+005
2795	2.6553e+005
2795	1.0498e+006
2796	8.8871e+005
2796	1.4385e+006
2797	4.2725e+005
2797	7.1805e+005
2798	6.6305e+005
2798	1.1928e+006
2799	2.5565e+005
2799	3.7768e+005
2800	4.7855e+006
2800	4.7479e+006
2801	0.
2801	0.
2802	1.713e+005
2802	43303
2803	2.3675e+005
2803	68843
2804	0.
2804	0.
2805	0.
2805	0.
2806	1.0362e+006
2806	1.4039e+006
2807	0.
2807	0.
2808	0.
2808	0.
2809	0.
2809	0.
2810	0.
2810	0.
2811	0.
2811	0.
2812	0.
2812	0.
2813	0.
2813	0.
2814	0.
2814	0.
2815	0.
2815	0.
2816	0.
2816	0.
2817	0.
2817	0.
2818	0.
2818	0.
2819	0.
2819	0.
2820	0.
2820	0.
2821	0.
2821	0.
2822	0.
2822	0.
2823	0.
2823	0.
2824	0.
2824	0.
2825	0.
2825	0.
2826	0.
2826	0.
2827	0.
2827	0.
2828	0.
2828	0.
2829	0.
2829	0.
2830	0.
2830	0.
2831	0.
2831	0.
2832	0.
2832	0.
2833	0.
2833	0.
2834	0.
2834	0.
2835	0.
2835	0.
2836	0.
2836	0.
2837	0.
2837	0.
2838	0.
2838	0.
2839	0.
2839	0.
2840	0.
2840	0.
2841	0.
2841	0.
2842	0.
2842	0.
2843	0.
2843	0.
2844	0.
2844	0.
2845	0.
2845	0.
2846	0.
2846	0.
2847	0.
2847	0.
2848	0.
2848	0.
2849	0.
2849	0.
2850	0.
2850	0.
2851	0.
2851	0.
2852	0.
2852	0.
2853	0.
2853	0.
2854	0.
2854	0.
2855	0.
2855	0.
2856	0.
2856	0.
2857	0.
2857	0.
2858	0.
2858	0.
2859	3.9868e+005
2859	8.1872e+005
2860	2.0209e+006
2860	3.9493e+005
2861	1.135e+006
2861	9.9417e+005
2862	1.0918e+006
2862	1.1277e+006
2863	1.0721e+006
2863	6.685e+005
2864	9.4305e+005
2864	8.8572e+005
2865	9.2849e+005
2865	2.6049e+005
2866	9.351e+005
2866	5.6412e+005
2867	4.2923e+005
2867	2.7481e+006
2868	6.6528e+005
2868	1.4971e+006
2869	6.067e+005
2869	1.959e+006
2870	9.405e+005
2870	1.5055e+006
2871	1.2454e+006
2871	1.143e+006
2872	1.3158e+006
2872	7.4725e+005
2873	7.4276e+005
2873	6.4027e+005
2874	2.2988e+006
2874	1.3082e+006
2875	5.9927e+005
2875	1.5336e+006
2876	1.0616e+006
2876	1.9774e+006
2877	8.7605e+005
2877	7.9167e+005
2878	9.2105e+005
2878	1.0167e+006
2879	1.4436e+006
2879	1.3735e+006
2880	1.805e+006
2880	9.5198e+005
2881	1.2381e+006
2881	6.9048e+005
2882	7.6634e+005
2882	8.6074e+005
2883	1.5714e+006
2883	1.3913e+006
2884	6.4828e+005
2884	1.2689e+006
2885	1.3953e+006
2885	6.0673e+005
2886	1.2691e+006
2886	1.0445e+006
2887	1.9927e+006
2887	1.275e+006
2888	1.2936e+006
2888	1.3529e+006
2889	1.006e+006
2889	1.4261e+006
2890	8.7464e+005
2890	1.256e+006
2891	1.0322e+006
2891	8.2241e+005
2892	6.581e+005
2892	1.4306e+006
2893	7.9917e+005
2893	1.2736e+006
2894	1.4265e+006
2894	1.1533e+006
2895	1.7958e+006
2895	1.4766e+006
2896	2.0788e+006
2896	1.4755e+006
2897	1.9002e+006
2897	1.1206e+006
2898	2.2025e+006
2898	1.9938e+006
2899	2.8548e+006
2899	3.2459e+006
2900	3.3961e+006
2900	3.3515e+006
2901	1.1551e+006
2901	1.5332e+006
2902	1.9034e+006
2902	7.6686e+005
2903	2.1643e+006
2903	2.1246e+006
2904	2.3433e+006
2904	2.1857e+006
2905	1.3237e+006
2905	1.2125e+006
2906	1.5954e+006
2906	2.3731e+006
2907	4.3111e+006
2907	2.0234e+006
2908	2.1113e+006
2908	1.6003e+006
2909	3.265e+006
2909	3.1856e+006
2910	2.1762e+006
2910	2.1718e+006
2911	2.0549e+006
2911	2.1173e+006
2912	2.78e+006
2912	2.7949e+006
2913	1.8572e+006
2913	1.6415e+006
2914	4.0456e+006
2914	3.3428e+006
2915	1.989e+006
2915	1.8285e+006
2916	4.4364e+006
2916	3.9033e+006
2917	1.1663e+006
2917	8.4349e+005
2918	2.3768e+006
2918	1.7378e+006
2919	2.2027e+006
2919	3.1396e+006
2920	2.8975e+006
2920	2.7436e+006
2921	1.7033e+006
2921	1.7306e+006
2922	3.0874e+006
2922	3.1963e+006
2923	2.145e+006
2923	1.0377e+006
2924	2.169e+006
2924	1.3443e+006
2925	5.0491e+006
2925	5.1938e+006
2926	2.2763e+006
2926	1.1872e+006
2927	2.1461e+006
2927	8.6219e+005
2928	1.1027e+006
2928	1.6966e+006
2929	4.5191e+006
2929	3.6394e+006
2930	1.3397e+006
2930	1.8644e+006
2931	3.5868e+006
2931	1.5074e+006
2932	2.8826e+006
2932	4.2458e+006
2933	2.8883e+006
2933	2.8782e+006
2934	4.2517e+006
2934	4.3373e+006
2935	3.0174e+006
2935	2.7501e+006
2936	2.0591e+006
2936	2.0248e+006
2937	3.0346e+006
2937	3.2326e+006
2938	5.0551e+006
2938	3.6188e+006
2939	1.8998e+006
2939	2.6076e+006
2940	1.0844e+006
2940	3.9311e+006
2941	2.0363e+006
2941	1.7186e+006
2942	1.5041e+006
2942	1.9459e+006
2943	3.5053e+006
2943	1.7893e+006
2944	3.2937e+006
2944	4.4322e+006
2945	2.135e+006
2945	1.4145e+006
2946	3.7098e+006
2946	4.5802e+006
2947	1.4024e+006
2947	2.1375e+006
2948	1.9391e+006
2948	1.8937e+006
2949	2.634e+006
2949	2.9647e+006
2950	1.1682e+006
2950	1.1653e+006
2951	3.0546e+006
2951	3.198e+006
2952	2.8508e+006
2952	3.4419e+006
2953	3.6945e+006
2953	3.7474e+006
2954	2.8821e+006
2954	2.4234e+006
2955	1.8698e+006
2955	1.2832e+006
2956	3.189e+006
2956	2.4094e+006
2957	4.5826e+006
2957	4.0242e+006
2958	1.5116e+006
2958	1.1085e+006
2959	9.386e+005
2959	1.7748e+006
2960	9.1345e+005
2960	1.4254e+006
2961	2.7167e+006
2961	3.2792e+006
2962	3.1261e+006
2962	3.3955e+006
2963	2.6026e+006
2963	2.6724e+006
2964	2.5416e+006
2964	4.4763e+006
2965	4.1475e+006
2965	4.4614e+006
2966	7.4854e+005
2966	1.0197e+006
2967	1.7391e+006
2967	2.3524e+006
2968	1.5528e+006
2968	1.23e+006
2969	1.5041e+006
2969	1.7655e+006
2970	1.4032e+006
2970	1.6146e+006
2971	1.4053e+006
2971	1.9866e+006
2972	1.1631e+006
2972	1.4739e+006
2973	2.4635e+006
2973	3.5445e+006
2974	1.3568e+006
2974	2.0889e+006
2975	2.7751e+006
2975	1.6324e+006
2976	8.8157e+005
2976	3.1488e+006
2977	4.1102e+006
2977	1.7075e+006
2978	2.0737e+006
2978	1.6033e+006
2979	2.9244e+006
2979	2.316e+006
2980	1.1343e+006
2980	1.1134e+006
2981	1.8714e+006
2981	3.8875e+006
2982	1.3229e+006
2982	1.3259e+006
2983	2.2918e+006
2983	1.9191e+006
2984	2.4545e+006
2984	1.7913e+006
2985	1.4785e+006
2985	1.0957e+006
2986	2.2109e+006
2986	1.8517e+006
2987	1.4126e+006
2987	1.0019e+006
2988	1.5726e+006
2988	2.6123e+006
2989	2.7235e+006
2989	2.7685e+006
2990	1.1654e+006
2990	9.4622e+005
2991	4.3346e+006
2991	4.4524e+006
2992	2.4079e+006
2992	3.3031e+006
2993	1.28e+006
2993	1.0694e+006
2994	4.1025e+006
2994	3.7016e+006
2995	2.1839e+006
2995	1.6818e+006
2996	9.9396e+005
2996	1.3338e+006
2997	2.2491e+006
2997	1.1762e+006
2998	2.1247e+006
2998	1.8591e+006
2999	1.5129e+006
2999	2.8919e+006
3000	1.2735e+006
3000	8.009e+005
3001	7.3749e+005
3001	9.195e+005
3002	1.388e+006
3002	1.7906e+006
3003	1.0677e+006
3003	1.2103e+006
3004	1.8014e+006
3004	1.7138e+006
3005	1.78e+006
3005	1.8039e+006
3006	2.2325e+006
3006	2.1711e+006
3007	4.181e+006
3007	3.8305e+006
3008	2.6639e+006
3008	2.7957e+006
3009	2.5425e+006
3009	2.7713e+006
3010	2.0677e+006
3010	2.2069e+006
3011	3.1209e+006
3011	2.7671e+006
3012	1.7532e+006
3012	2.0186e+006
3013	1.086e+006
3013	5.2061e+006
3014	3.6583e+006
3014	2.2186e+006
3015	2.6886e+006
3015	1.0027e+006
3016	1.3175e+006
3016	1.152e+006
3017	1.611e+006
3017	1.4484e+006
3018	3.1798e+006
3018	4.2732e+006
3019	3.0376e+006
3019	3.2606e+006
3020	1.9646e+006
3020	3.7812e+006
3021	2.166e+006
3021	3.7487e+006
3022	3.0241e+006
3022	3.1443e+006
3023	1.807e+006
3023	9.5483e+005
3024	2.5466e+006
3024	2.8524e+006
3025	2.1239e+006
3025	2.9939e+006
3026	2.107e+006
3026	1.4464e+006
3027	1.0814e+006
3027	1.2491e+006
3028	2.1315e+006
3028	2.4573e+006
3029	3.0798e+006
3029	3.0753e+006
3030	2.092e+006
3030	3.3303e+006
3031	1.4168e+006
3031	3.1674e+006
3032	4.8831e+006
3032	4.0515e+006
3033	2.3989e+006
3033	2.2084e+006
3034	2.9156e+006
3034	1.6308e+006
3035	3.0456e+006
3035	3.9466e+006
3036	1.0223e+006
3036	6.3958e+005
3037	2.4046e+006
3037	3.4826e+006
3038	9.7321e+005
3038	1.0012e+006
3039	3.6979e+006
3039	3.5172e+006
3040	1.7023e+006
3040	2.0792e+006
3041	2.0542e+006
3041	2.1308e+006
3042	2.5393e+006
3042	3.0753e+006
3043	2.7281e+006
3043	2.6377e+006
3044	2.7013e+006
3044	2.1473e+006
3045	3.7221e+006
3045	3.5648e+006
3046	1.9197e+006
3046	1.9081e+006
3047	4.0151e+006
3047	4.0476e+006
3048	1.8468e+006
3048	1.9228e+006
3049	1.6877e+006
3049	1.3259e+006
3050	9.3837e+005
3050	1.101e+006
3051	1.4091e+006
3051	1.7327e+006
3052	1.747e+006
3052	2.3823e+006
3053	3.7462e+006
3053	4.1362e+006
3054	2.5492e+006
3054	1.6684e+006
3055	2.5075e+006
3055	1.2094e+006
3056	8.6429e+005
3056	1.6452e+006
3057	1.4391e+006
3057	1.8324e+006
3058	2.7839e+006
3058	3.3897e+006
3059	6.8992e+006
3059	3.098e+006
3060	1.0376e+006
3060	1.2452e+006
3061	1.5346e+006
3061	2.1477e+006
3062	3.2835e+006
3062	2.3996e+006
3063	1.6694e+006
3063	1.4753e+006
3064	2.6138e+006
3064	2.3359e+006
3065	2.5792e+006
3065	2.1313e+006
3066	3.0979e+006
3066	2.3366e+006
3067	1.9229e+006
3067	6.1253e+006
3068	1.8419e+006
3068	3.8616e+006
3069	2.4658e+006
3069	2.5202e+006
3070	5.0201e+006
3070	5.4278e+006
3071	3.036e+006
3071	3.8608e+006
3072	2.6226e+006
3072	2.6125e+006
3073	2.7726e+006
3073	2.705e+006
3074	4.2351e+006
3074	4.6374e+006
3075	3.1318e+006
3075	3.05e+006
3076	3.9683e+006
3076	3.24e+006
3077	2.7093e+006
3077	2.7382e+006
3078	5.4976e+006
3078	5.6601e+006
3079	4.8143e+006
3079	3.4279e+006
3080	2.7854e+006
3080	2.0124e+006
3081	1.9698e+006
3081	1.9294e+006
3082	1.3501e+006
3082	1.3109e+006
3083	2.1222e+006
3083	2.047e+006
3084	1.1763e+006
3084	2.1721e+006
3085	1.8318e+006
3085	1.8099e+006
3086	3.3741e+006
3086	3.3759e+006
3087	3.2135e+006
3087	2.8101e+006
3088	1.3542e+006
3088	1.152e+006
3089	1.7249e+006
3089	2.2166e+006
3090	7.8285e+005
3090	9.9606e+005
3091	0.
3091	0.
3092	3.4618e+005
3092	7.9326e+005
3093	1.0834e+006
3093	1.7331e+006
3094	1.1092e+006
3094	1.3041e+006
3095	1.3964e+006
3095	1.2838e+006
3096	7.401e+005
3096	1.6679e+006
3097	1.3417e+006
3097	1.0158e+006
3098	0.
3098	0.
3099	1.2771e+006
3099	1.0052e+006
3100	0.
3100	0.
3101	0.
3101	0.
3102	0.
3102	0.
3103	1.3678e+006
3103	7.6932e+005
3104	1.566e+006
3104	1.5317e+006
3105	3.6063e+006
3105	3.4026e+006
3106	0.
3106	0.
3107	0.
3107	0.
3108	0.
3108	0.
3109	0.
3109	0.
3110	0.
3110	0.
3111	5.5581e+005
3111	4.9309e+005
3112	0.
3112	0.
3113	0.
3113	0.
3114	0.
3114	0.
3115	0.
3115	0.
3116	0.
3116	0.
3117	0.
3117	0.
3118	0.
3118	0.
3119	0.
3119	0.
3120	0.
3120	0.
3121	0.
3121	0.
3122	0.
3122	0.
3123	0.
3123	0.
3124	0.
3124	0.
3125	0.
3125	0.
3126	0.
3126	0.
3127	0.
3127	0.
3128	0.
3128	0.
3129	0.
3129	0.
3130	0.
3130	0.
3131	0.
3131	0.
3132	0.
3132	0.
3133	0.
3133	0.
3134	0.
3134	0.
3135	0.
3135	0.
3136	0.
3136	0.
3137	0.
3137	0.
3138	0.
3138	0.
3139	0.
3139	0.
3140	0.
3140	0.
3141	0.
3141	0.
3142	0.
3142	0.
3143	0.
3143	0.
3144	0.
3144	0.
3145	0.
3145	0.
3146	0.
3146	0.
3147	0.
3147	0.
3148	0.
3148	0.
3149	0.
3149	0.
3150	0.
3150	0.
3151	0.
3151	0.
3152	0.
3152	0.
3153	0.
3153	0.
3154	0.
3154	0.
3155	0.
3155	0.
3156	0.
3156	0.
3157	0.
3157	0.
3158	0.
3158	0.
3159	0.
3159	0.
3160	0.
3160	0.
3161	0.
3161	0.
3162	2.9595e+005
3162	1.0096e+006
3163	1.3669e+006
3163	1.0585e+006
3164	1.6466e+006
3164	2.1467e+006
3165	1.5678e+006
3165	1.748e+006
3166	1.6417e+006
3166	1.8055e+006
3167	3.8141e+006
3167	4.112e+006
3168	3.2833e+006
3168	2.7858e+006
3169	2.1213e+006
3169	3.1509e+006
3170	1.8275e+006
3170	1.7486e+006
3171	9.875e+005
3171	2.5006e+006
3172	2.7566e+006
3172	2.0026e+006
3173	1.2908e+006
3173	9.8749e+005
3174	1.1779e+006
3174	1.4584e+006
3175	2.6262e+006
3175	2.339e+006
3176	1.9889e+006
3176	1.6528e+006
3177	2.0596e+006
3177	1.9881e+006
3178	1.0092e+006
3178	1.1059e+006
3179	2.2914e+006
3179	2.1049e+006
3180	1.073e+006
3180	1.6185e+006
3181	1.7986e+006
3181	1.9881e+006
3182	1.7928e+006
3182	1.4811e+006
3183	2.3273e+006
3183	1.9244e+006
3184	2.0757e+006
3184	1.0202e+006
3185	2.2135e+006
3185	1.6488e+006
3186	2.6047e+006
3186	2.3063e+006
3187	2.2565e+006
3187	1.9008e+006
3188	2.2524e+006
3188	2.0468e+006
3189	2.2196e+006
3189	2.1685e+006
3190	1.8722e+006
3190	1.1316e+006
3191	1.4797e+006
3191	1.3893e+006
3192	2.8231e+006
3192	2.5923e+006
3193	3.2903e+006
3193	2.4555e+006
3194	1.6771e+006
3194	1.9623e+006
3195	1.883e+006
3195	2.0091e+006
3196	9.1594e+005
3196	4.5723e+005
3197	2.5517e+006
3197	1.5746e+006
3198	1.0596e+006
3198	7.3529e+005
3199	1.431e+006
3199	1.1762e+006
3200	1.5844e+006
3200	1.8672e+006
3201	1.2019e+006
3201	1.2064e+006
3202	7.0558e+005
3202	1.3016e+006
3203	2.702e+006
3203	2.6982e+006
3204	2.8575e+006
3204	2.9132e+006
3205	2.704e+006
3205	2.4144e+006
3206	1.024e+006
3206	1.6002e+006
3207	2.5244e+006
3207	2.4754e+006
3208	5.3064e+005
3208	1.3603e+006
3209	2.6301e+006
3209	3.0303e+006
3210	3.017e+006
3210	1.5388e+006
3211	1.4659e+006
3211	6.249e+005
3212	9.9381e+005
3212	5.1917e+005
3213	5.4823e+005
3213	1.0245e+006
3214	1.0302e+006
3214	1.6787e+006
3215	2.4612e+006
3215	2.1777e+006
3216	3.6652e+006
3216	3.2067e+006
3217	1.366e+006
3217	2.4725e+006
3218	1.9357e+006
3218	2.0362e+006
3219	2.2696e+006
3219	1.3198e+006
3220	5.1716e+005
3220	1.0954e+006
3221	2.8772e+006
3221	3.2563e+006
3222	2.0945e+006
3222	1.8005e+006
3223	1.3256e+006
3223	8.8381e+005
3224	2.2509e+006
3224	2.5708e+006
3225	1.8439e+006
3225	1.7169e+006
3226	1.4038e+006
3226	1.3062e+005
3227	6.6381e+005
3227	1.0719e+006
3228	3.8858e+006
3228	4.0254e+006
3229	2.1982e+006
3229	1.4142e+006
3230	1.7828e+006
3230	1.5425e+006
3231	1.2404e+006
3231	1.0534e+006
3232	2.3804e+006
3232	1.9442e+006
3233	1.4061e+006
3233	1.4069e+006
3234	1.2398e+006
3234	7.7505e+005
3235	2.2374e+006
3235	2.2146e+006
3236	8.6716e+005
3236	1.4936e+006
3237	9.3134e+005
3237	9.3108e+005
3238	2.1874e+006
3238	1.3683e+006
3239	2.1273e+006
3239	3.2905e+006
3240	2.2102e+006
3240	9.3259e+005
3241	9.3213e+005
3241	1.5149e+006
3242	1.5706e+006
3242	1.1969e+006
3243	9.5049e+005
3243	2.2354e+006
3244	4.6503e+006
3244	3.8949e+006
3245	2.5634e+006
3245	2.142e+006
3246	3.6907e+006
3246	4.2717e+006
3247	2.3371e+006
3247	1.8828e+006
3248	1.9642e+006
3248	1.7831e+006
3249	3.2197e+006
3249	3.7846e+006
3250	3.0391e+006
3250	2.2108e+006
3251	2.9016e+006
3251	3.6159e+006
3252	3.9812e+006
3252	4.6314e+006
3253	3.0194e+006
3253	2.3045e+006
3254	2.0387e+006
3254	2.22e+006
3255	5.2232e+006
3255	4.8209e+006
3256	3.9259e+006
3256	4.2098e+006
3257	3.8981e+006
3257	3.733e+006
3258	2.6584e+006
3258	1.711e+006
3259	4.6314e+006
3259	1.7522e+006
3260	4.4687e+006
3260	4.3548e+006
3261	4.7824e+006
3261	4.2652e+006
3262	6.5539e+006
3262	5.7715e+006
3263	4.087e+006
3263	2.8232e+006
3264	3.0999e+006
3264	2.1868e+006
3265	3.5155e+006
3265	3.3492e+006
3266	4.5253e+006
3266	3.0025e+006
3267	3.1511e+006
3267	1.8169e+006
3268	3.908e+006
3268	3.8413e+006
3269	4.2362e+006
3269	4.8536e+006
3270	5.8245e+006
3270	6.5899e+006
3271	2.9089e+006
3271	3.5516e+006
3272	3.7574e+006
3272	3.2698e+006
3273	4.1674e+006
3273	3.3827e+006
3274	4.2836e+006
3274	3.0735e+006
3275	2.3979e+006
3275	2.7836e+006
3276	1.7944e+006
3276	1.7779e+006
3277	5.6581e+005
3277	7.5933e+005
3278	2.5988e+006
3278	2.2925e+006
3279	2.669e+006
3279	2.8837e+006
3280	4.0492e+006
3280	3.6411e+006
3281	2.8411e+006
3281	2.8411e+006
3282	1.4898e+006
3282	2.4257e+006
3283	3.9857e+006
3283	4.2392e+006
3284	1.4704e+006
3284	1.1632e+006
3285	1.4529e+006
3285	1.2203e+006
3286	2.3032e+006
3286	3.2198e+006
3287	3.6768e+006
3287	3.4657e+006
3288	2.1023e+006
3288	1.6851e+006
3289	9.0884e+005
3289	1.0387e+006
3290	5.4381e+005
3290	8.8886e+005
3291	9.202e+005
3291	8.8704e+005
3292	1.6808e+006
3292	8.7154e+005
3293	1.7035e+006
3293	1.4746e+006
3294	1.4803e+006
3294	8.5787e+005
3295	9.8399e+005
3295	9.9291e+005
3296	4.4539e+006
3296	3.5105e+006
3297	2.1711e+006
3297	2.332e+006
3298	1.1548e+006
3298	1.1689e+006
3299	1.1277e+006
3299	1.2001e+006
3300	1.9928e+006
3300	1.7338e+006
3301	5.2612e+006
3301	4.4548e+006
3302	3.0748e+006
3302	2.777e+006
3303	2.3832e+006
3303	1.4424e+006
3304	2.0165e+006
3304	1.8211e+006
3305	9.0803e+005
3305	5.5417e+005
3306	4.3322e+005
3306	1.5839e+006
3307	1.6164e+006
3307	1.7686e+006
3308	2.1277e+006
3308	2.1819e+006
3309	2.4179e+006
3309	1.2044e+006
3310	1.9243e+006
3310	1.8021e+006
3311	8.6294e+005
3311	1.358e+006
3312	8.4325e+005
3312	1.1866e+006
3313	1.2707e+006
3313	1.3775e+006
3314	1.0851e+006
3314	1.3731e+006
3315	1.4112e+006
3315	1.3937e+006
3316	1.4776e+006
3316	1.5961e+006
3317	5.5627e+006
3317	6.1228e+006
3318	4.2758e+006
3318	3.9453e+006
3319	4.7406e+006
3319	4.2933e+006
3320	4.3744e+006
3320	3.4309e+006
3321	4.4187e+006
3321	2.6497e+006
3322	3.9468e+006
3322	1.9425e+006
3323	4.6275e+006
3323	2.468e+006
3324	3.5554e+006
3324	4.2692e+006
3325	2.9492e+006
3325	1.6344e+006
3326	3.4931e+006
3326	4.5963e+006
3327	4.2778e+006
3327	5.503e+006
3328	2.6062e+006
3328	4.6367e+006
3329	4.7132e+006
3329	4.4032e+006
3330	4.6283e+006
3330	4.7451e+006
3331	3.6308e+006
3331	3.6281e+006
3332	4.5631e+006
3332	4.3821e+006
3333	1.4415e+006
3333	2.8615e+006
3334	4.4036e+006
3334	4.1335e+006
3335	2.9568e+006
3335	2.9131e+006
3336	3.6048e+006
3336	3.3992e+006
3337	2.6648e+006
3337	3.2018e+006
3338	4.2992e+006
3338	4.1335e+006
3339	4.7462e+006
3339	3.7702e+006
3340	3.921e+006
3340	2.1999e+006
3341	4.373e+006
3341	3.871e+006
3342	3.4729e+006
3342	3.964e+006
3343	2.8113e+006
3343	2.8991e+006
3344	6.6234e+006
3344	5.6183e+006
3345	4.1403e+006
3345	3.762e+006
3346	4.4838e+006
3346	5.1483e+006
3347	3.2286e+006
3347	4.1562e+006
3348	3.0482e+006
3348	3.4985e+006
3349	2.6787e+006
3349	2.5429e+006
3350	3.9964e+006
3350	3.0724e+006
3351	5.8523e+006
3351	2.9409e+006
3352	6.4291e+006
3352	3.7251e+006
3353	3.4711e+006
3353	3.0215e+006
3354	3.7699e+006
3354	4.9157e+006
3355	3.8523e+006
3355	3.3608e+006
3356	1.7932e+006
3356	1.5848e+006
3357	1.4429e+006
3357	1.3493e+006
3358	3.3287e+006
3358	3.5333e+006
3359	2.1273e+006
3359	1.6567e+006
3360	1.52e+006
3360	1.8008e+006
3361	2.7748e+006
3361	2.462e+006
3362	9.5231e+005
3362	1.0386e+006
3363	2.5532e+006
3363	2.683e+006
3364	1.8671e+006
3364	1.7688e+006
3365	1.8922e+006
3365	1.5511e+006
3366	2.9263e+006
3366	3.2538e+006
3367	2.0709e+006
3367	1.5651e+006
3368	4.9241e+005
3368	2.0444e+006
3369	3.2411e+006
3369	3.395e+006
3370	1.4426e+006
3370	6.9419e+005
3371	9.3899e+005
3371	1.4552e+006
3372	7.8764e+005
3372	7.6238e+005
3373	8.6003e+005
3373	1.0514e+006
3374	1.2346e+006
3374	1.2581e+006
3375	1.0455e+006
3375	1.6222e+006
3376	1.0481e+006
3376	1.2363e+006
3377	4.009e+006
3377	3.3802e+006
3378	2.8959e+006
3378	1.7015e+006
3379	1.875e+006
3379	1.4555e+006
3380	1.5405e+006
3380	1.4133e+006
3381	1.4479e+006
3381	1.7741e+006
3382	1.3763e+006
3382	5.3247e+005
3383	1.8094e+006
3383	9.2454e+005
3384	1.0393e+006
3384	1.2603e+006
3385	1.3661e+006
3385	1.5408e+006
3386	1.1147e+006
3386	1.799e+006
3387	3.151e+006
3387	3.3183e+006
3388	7.9154e+005
3388	8.376e+005
3389	1.697e+006
3389	6.2431e+005
3390	1.2879e+006
3390	1.3336e+006
3391	1.1956e+006
3391	1.3924e+006
3392	8.6182e+005
3392	1.3733e+006
3393	1.2473e+006
3393	1.4976e+006
3394	1.067e+006
3394	1.5584e+006
3395	5.9832e+005
3395	1.4292e+006
3396	1.4205e+006
3396	1.6075e+006
3397	1.7345e+006
3397	1.9473e+006
3398	3.1664e+006
3398	3.042e+006
3399	3.2621e+006
3399	4.2121e+006
3400	2.3552e+006
3400	3.1772e+006
3401	1.8603e+006
3401	2.6337e+006
3402	4.7107e+006
3402	4.1312e+006
3403	4.4244e+006
3403	4.0334e+006
3404	4.645e+006
3404	4.2846e+006
3405	2.4736e+006
3405	2.5532e+006
3406	5.1952e+006
3406	5.1924e+006
3407	2.2139e+006
3407	1.5588e+006
3408	3.2875e+006
3408	2.8344e+006
3409	3.0685e+006
3409	3.1367e+006
3410	3.1386e+006
3410	2.8618e+006
3411	2.6717e+006
3411	2.5092e+006
3412	3.8732e+006
3412	4.3312e+006
3413	3.1661e+006
3413	2.7705e+006
3414	4.4599e+006
3414	4.2731e+006
3415	1.9371e+006
3415	2.871e+006
3416	3.6187e+006
3416	3.2856e+006
3417	1.9874e+006
3417	2.424e+006
3418	5.6325e+006
3418	6.2108e+006
3419	4.8052e+006
3419	4.0891e+006
3420	4.4561e+006
3420	5.0532e+006
3421	5.6352e+006
3421	5.535e+006
3422	5.4425e+006
3422	5.3042e+006
3423	4.588e+006
3423	3.9939e+006
3424	3.169e+006
3424	2.0128e+006
3425	4.1649e+006
3425	3.731e+006
3426	3.0051e+006
3426	3.301e+006
3427	3.5337e+006
3427	2.579e+006
3428	3.0774e+006
3428	3.477e+006
3429	2.0836e+006
3429	1.7916e+006
3430	4.1674e+006
3430	4.2577e+006
3431	4.335e+006
3431	3.7445e+006
3432	3.3186e+006
3432	3.4071e+006
3433	2.7411e+006
3433	2.6729e+006
3434	4.3443e+006
3434	3.5933e+006
3435	3.4604e+006
3435	3.62e+006
3436	1.6565e+006
3436	3.3671e+006
3437	2.9465e+006
3437	3.758e+006
3438	1.7016e+006
3438	1.1875e+006
3439	2.3166e+006
3439	3.5301e+006
3440	4.9591e+006
3440	5.055e+006
3441	3.3264e+006
3441	3.9823e+006
3442	3.3974e+006
3442	3.0612e+006
3443	2.0332e+006
3443	2.6936e+006
3444	8.4733e+005
3444	1.0749e+006
3445	2.6821e+006
3445	2.5671e+006
3446	3.277e+006
3446	3.1467e+006
3447	4.7571e+006
3447	3.0841e+006
3448	2.0884e+006
3448	2.0985e+006
3449	2.8822e+006
3449	2.3799e+006
3450	2.9641e+006
3450	2.1491e+006
3451	1.2598e+006
3451	6.0089e+005
3452	4.6549e+006
3452	5.2806e+006
3453	4.0062e+006
3453	3.1222e+006
3454	3.1322e+006
3454	2.9434e+006
3455	4.208e+006
3455	3.7652e+006
3456	5.2764e+006
3456	4.2177e+006
3457	2.7461e+006
3457	3.0662e+006
3458	9.0396e+005
3458	1.7109e+006
3459	3.8749e+006
3459	2.944e+006
3460	1.0853e+006
3460	3.0134e+005
3461	6.9918e+005
3461	8.3973e+005
3462	7.5408e+005
3462	8.7881e+005
3463	1.2502e+006
3463	9.5892e+005
3464	1.163e+006
3464	8.8472e+005
3465	3.1109e+006
3465	3.3091e+006
3466	1.2903e+006
3466	1.2089e+006
3467	9.6108e+005
3467	8.152e+005
3468	2.4793e+006
3468	2.5881e+006
3469	1.3255e+006
3469	1.3947e+006
3470	1.1488e+006
3470	4.7505e+005
3471	2.947e+006
3471	3.228e+006
3472	1.0369e+006
3472	1.3563e+006
3473	1.0206e+006
3473	5.483e+005
3474	1.1553e+006
3474	1.6484e+006
3475	9.7417e+005
3475	2.313e+005
3476	7.8753e+005
3476	9.706e+005
3477	2.4096e+006
3477	2.5741e+006
3478	2.6065e+006
3478	3.1944e+006
3479	3.9752e+006
3479	4.4089e+006
3480	1.9702e+006
3480	3.5305e+006
3481	3.7822e+006
3481	4.6803e+006
3482	3.7354e+006
3482	3.2161e+006
3483	3.0488e+006
3483	4.4944e+006
3484	4.2823e+006
3484	4.0775e+006
3485	2.8553e+006
3485	3.8505e+006
3486	2.4984e+006
3486	3.748e+006
3487	4.3561e+006
3487	4.4752e+006
3488	2.0786e+006
3488	3.0583e+006
3489	1.1338e+006
3489	2.728e+006
3490	4.5192e+006
3490	3.766e+006
3491	2.8213e+006
3491	3.1122e+006
3492	3.6463e+006
3492	3.6395e+006
3493	5.5894e+006
3493	3.4037e+006
3494	3.0292e+006
3494	4.0741e+006
3495	3.6288e+006
3495	2.7349e+006
3496	3.427e+006
3496	2.7386e+006
3497	3.504e+006
3497	3.8747e+006
3498	2.9684e+006
3498	3.8115e+006
3499	2.3067e+006
3499	3.177e+006
3500	4.2246e+006
3500	3.9354e+006
3501	3.2167e+006
3501	3.4998e+006
3502	2.2811e+006
3502	1.9747e+006
3503	4.1536e+006
3503	4.5004e+006
3504	2.5438e+006
3504	1.7982e+006
3505	7.197e+006
3505	6.3179e+006
3506	2.2054e+006
3506	2.2449e+006
3507	2.6134e+006
3507	2.4863e+006
3508	1.0395e+006
3508	9.7538e+005
3509	4.1014e+006
3509	4.9808e+006
3510	2.9259e+006
3510	2.9497e+006
3511	3.323e+006
3511	3.1257e+006
3512	2.2533e+006
3512	2.2433e+006
3513	1.7186e+006
3513	2.4097e+006
3514	4.138e+006
3514	3.8864e+006
3515	1.2809e+006
3515	1.2744e+006
3516	4.5855e+006
3516	4.9596e+006
3517	1.2961e+006
3517	1.2879e+006
3518	3.9192e+006
3518	3.7713e+006
3519	1.7397e+006
3519	1.5985e+006
3520	1.2524e+006
3520	1.5803e+006
3521	1.3764e+006
3521	2.4797e+006
3522	2.2386e+006
3522	1.4903e+006
3523	2.0704e+006
3523	8.49e+005
3524	2.3432e+006
3524	1.4604e+006
3525	1.4434e+006
3525	9.181e+005
3526	1.7105e+006
3526	1.3429e+006
3527	1.2679e+006
3527	1.8006e+006
3528	3.7778e+006
3528	3.6681e+006
3529	2.8293e+006
3529	1.5413e+006
3530	9.202e+005
3530	9.9284e+005
3531	7.2096e+005
3531	1.0259e+006
3532	1.0699e+006
3532	1.9586e+006
3533	7.4634e+005
3533	1.2544e+006
3534	1.7182e+006
3534	1.3672e+006
3535	2.1817e+006
3535	1.694e+006
3536	1.5855e+006
3536	2.0875e+006
3537	1.1238e+006
3537	1.5441e+006
3538	2.8495e+006
3538	2.6703e+006
3539	8.7351e+005
3539	1.4133e+006
3540	9.7329e+005
3540	7.3662e+005
3541	1.1769e+006
3541	1.109e+006
3542	2.0534e+006
3542	1.9468e+006
3543	5.771e+005
3543	9.9072e+005
3544	8.9119e+005
3544	1.2806e+006
3545	1.9639e+006
3545	1.382e+006
3546	7.5415e+005
3546	8.2399e+005
3547	1.3078e+006
3547	9.8802e+005
3548	2.4437e+006
3548	2.9029e+006
3549	4.3207e+006
3549	3.5901e+006
3550	4.1046e+006
3550	2.3127e+006
3551	5.3005e+006
3551	5.0493e+006
3552	2.5094e+006
3552	4.7736e+006
3553	3.5018e+006
3553	2.9767e+006
3554	1.5055e+006
3554	4.8569e+006
3555	4.0061e+006
3555	3.8145e+006
3556	4.5989e+006
3556	4.5768e+006
3557	3.5013e+006
3557	3.1099e+006
3558	4.5903e+006
3558	4.486e+006
3559	4.7583e+006
3559	5.6055e+006
3560	3.9637e+006
3560	4.2357e+006
3561	3.5234e+006
3561	2.7708e+006
3562	3.1082e+006
3562	1.7009e+006
3563	4.0899e+006
3563	4.6451e+006
3564	2.7262e+006
3564	3.3915e+006
3565	3.0128e+006
3565	2.2693e+006
3566	2.5985e+006
3566	2.1184e+006
3567	4.5233e+006
3567	1.6045e+006
3568	3.4615e+006
3568	4.7205e+006
3569	3.7686e+006
3569	3.2382e+006
3570	5.7604e+006
3570	6.0904e+006
3571	1.1117e+006
3571	2.6339e+006
3572	2.8711e+006
3572	2.5552e+006
3573	6.1099e+005
3573	1.4709e+006
3574	2.2972e+006
3574	2.0553e+006
3575	1.6134e+006
3575	1.8689e+006
3576	3.6255e+006
3576	2.9659e+006
3577	7.7711e+005
3577	6.221e+005
3578	1.6501e+006
3578	2.2127e+006
3579	1.6028e+006
3579	2.0457e+006
3580	1.0335e+006
3580	1.6158e+006
3581	6.5251e+005
3581	9.7661e+005
3582	1.3212e+006
3582	1.3334e+006
3583	0.
3583	0.
3584	5.5462e+005
3584	6.1964e+005
3585	1.4551e+006
3585	1.0913e+006
3586	2.3175e+006
3586	2.1197e+006
3587	0.
3587	0.
3588	7.2107e+005
3588	7.2785e+005
3589	0.
3589	0.
3590	1.2814e+006
3590	8.8527e+005
3591	1.0215e+006
3591	2.084e+006
3592	0.
3592	0.
3593	0.
3593	0.
3594	0.
3594	0.
3595	0.
3595	0.
3596	6.1818e+005
3596	6.3665e+005
3597	4.725e+005
3597	7.4766e+005
3598	0.
3598	0.
3599	0.
3599	0.
3600	0.
3600	0.
3601	0.
3601	0.
3602	0.
3602	0.
3603	0.
3603	0.
3604	0.
3604	0.
3605	0.
3605	0.
3606	0.
3606	0.
3607	0.
3607	0.
3608	1.8114e+005
3608	40496
3609	0.
3609	0.
3610	0.
3610	0.
3611	0.
3611	0.
3612	0.
3612	0.
3613	0.
3613	0.
3614	0.
3614	0.
3615	0.
3615	0.
3616	0.
3616	0.
3617	0.
3617	0.
3618	0.
3618	0.
3619	0.
3619	0.
3620	0.
3620	0.
3621	0.
3621	0.
3622	0.
3622	0.
3623	0.
3623	0.
3624	0.
3624	0.
3625	0.
3625	0.
3626	0.
3626	0.
3627	0.
3627	0.
3628	0.
3628	0.
3629	0.
3629	0.
3630	0.
3630	0.
3631	0.
3631	0.
3632	0.
3632	0.
3633	0.
3633	0.
3634	0.
3634	0.
3635	0.
3635	0.
3636	0.
3636	0.
3637	0.
3637	0.
3638	0.
3638	0.
3639	0.
3639	0.
3640	0.
3640	0.
3641	0.
3641	0.
3642	0.
3642	0.
3643	0.
3643	0.
3644	0.
3644	0.
3645	0.
3645	0.
3646	0.
3646	0.
3647	0.
3647	0.
3648	0.
3648	0.
3649	0.
3649	0.
3650	0.
3650	0.
3651	0.
3651	0.
3652	0.
3652	0.
3653	0.
3653	0.
3654	0.
3654	0.
3655	0.
3655	0.
3656	0.
3656	0.
3657	0.
3657	0.
3658	0.
3658	0.
3659	0.
3659	0.
3660	0.
3660	0.
3661	0.
3661	0.
3662	0.
3662	0.
3663	0.
3663	0.
3664	0.
3664	0.
3665	0.
3665	0.
3666	0.
3666	0.
3667	0.
3667	0.
3668	0.
3668	0.
3669	0.
3669	0.
3670	0.
3670	0.
3671	0.
3671	0.
3672	0.
3672	0.
3673	0.
3673	0.
3674	0.
3674	0.
3675	0.
3675	0.
3676	0.
3676	0.
3677	1.0952e+006
3677	1.0694e+006
3678	1.5063e+006
3678	3.8066e+005
3679	1.2668e+006
3679	9.0837e+005
3680	9.8744e+005
3680	1.1229e+006
3681	7.6836e+005
3681	1.1282e+006
3682	8.4251e+005
3682	1.6335e+006
3683	1.8524e+006
3683	1.8087e+006
3684	1.4522e+006
3684	1.0157e+006
3685	1.3294e+006
3685	1.1209e+006
3686	2.2441e+006
3686	1.5483e+006
3687	1.1748e+006
3687	7.3375e+005
3688	1.649e+006
3688	1.7879e+006
3689	4.9405e+005
3689	7.4433e+005
3690	7.4372e+005
3690	9.3665e+005
3691	1.0597e+006
3691	1.2035e+006
3692	1.1448e+006
3692	1.1691e+006
3693	2.6412e+006
3693	1.8436e+006
3694	1.5639e+006
3694	7.1889e+005
3695	2.4113e+006
3695	1.5602e+006
3696	3.1856e+006
3696	2.9891e+006
3697	8.2453e+005
3697	1.0259e+006
3698	1.9492e+006
3698	2.1082e+006
3699	1.5648e+006
3699	2.2624e+006
3700	8.5793e+005
3700	1.1609e+006
3701	1.3218e+006
3701	8.3178e+005
3702	2.5753e+006
3702	1.9838e+006
3703	7.1821e+005
3703	7.6388e+005
3704	7.5432e+005
3704	6.1083e+005
3705	1.7111e+006
3705	1.4866e+006
3706	7.3683e+005
3706	6.4879e+005
3707	1.1358e+006
3707	9.0293e+005
3708	1.5586e+006
3708	1.1761e+006
3709	3.7648e+006
3709	3.8438e+006
3710	3.2934e+006
3710	3.2662e+006
3711	1.4973e+006
3711	1.4645e+006
3712	2.6741e+006
3712	3.007e+006
3713	6.8584e+005
3713	6.0433e+005
3714	9.9584e+005
3714	6.8061e+005
3715	5.0401e+005
3715	8.8961e+005
3716	7.5526e+005
3716	7.6812e+005
3717	5.2878e+005
3717	4.556e+005
3718	1.6465e+006
3718	1.9605e+006
3719	7.4373e+005
3719	4.4608e+005
3720	2.2304e+006
3720	2.7662e+006
3721	2.2201e+006
3721	1.2949e+006
3722	1.1924e+006
3722	1.317e+006
3723	2.1766e+006
3723	2.2156e+006
3724	2.6754e+006
3724	1.4193e+006
3725	9.8191e+005
3725	1.026e+006
3726	1.2315e+006
3726	5.4891e+005
3727	2.1128e+006
3727	1.7828e+006
3728	1.9709e+006
3728	1.4053e+006
3729	1.8975e+006
3729	1.8869e+006
3730	2.6654e+006
3730	2.3688e+006
3731	8.3864e+005
3731	1.77e+006
3732	3.9779e+006
3732	3.8005e+006
3733	1.8049e+006
3733	1.9107e+006
3734	1.2904e+006
3734	1.3288e+006
3735	4.0364e+006
3735	3.498e+006
3736	1.6681e+006
3736	1.4744e+006
3737	2.5013e+006
3737	2.561e+006
3738	7.2181e+005
3738	1.1149e+006
3739	2.9294e+006
3739	4.0137e+006
3740	1.9233e+006
3740	2.9079e+006
3741	2.3028e+006
3741	1.6496e+006
3742	2.0106e+006
3742	1.998e+006
3743	2.8618e+006
3743	2.4541e+006
3744	3.7447e+006
3744	4.3554e+006
3745	3.039e+006
3745	3.1794e+006
3746	4.1007e+006
3746	4.9098e+006
3747	3.2617e+006
3747	3.4251e+006
3748	3.6431e+006
3748	4.3921e+006
3749	1.5652e+006
3749	2.1664e+006
3750	3.0323e+006
3750	4.3161e+006
3751	1.8782e+006
3751	2.1166e+006
3752	3.2273e+006
3752	3.0697e+006
3753	3.6705e+006
3753	3.492e+006
3754	1.7478e+006
3754	1.7439e+006
3755	2.9985e+006
3755	4.2675e+006
3756	2.9141e+006
3756	3.3467e+006
3757	2.5968e+006
3757	2.6636e+006
3758	4.9461e+006
3758	3.845e+006
3759	6.6006e+005
3759	1.0023e+006
3760	6.6467e+005
3760	6.1335e+005
3761	7.7637e+005
3761	1.2156e+006
3762	5.7046e+006
3762	4.245e+006
3763	2.9503e+006
3763	2.8733e+006
3764	1.7949e+006
3764	1.5415e+006
3765	3.4989e+006
3765	3.705e+006
3766	1.878e+006
3766	1.7303e+006
3767	4.8172e+005
3767	2.4022e+006
3768	2.238e+006
3768	1.7589e+006
3769	2.851e+006
3769	3.2066e+006
3770	3.9423e+006
3770	2.9964e+006
3771	2.956e+006
3771	3.4922e+006
3772	1.572e+006
3772	1.7344e+006
3773	3.2445e+006
3773	3.3958e+006
3774	3.195e+006
3774	2.4124e+006
3775	3.9549e+006
3775	4.8464e+006
3776	9.6929e+005
3776	8.6011e+005
3777	1.5462e+006
3777	9.4809e+005
3778	2.9175e+006
3778	4.649e+006
3779	1.5611e+006
3779	6.961e+005
3780	1.1016e+006
3780	5.9818e+005
3781	7.672e+005
3781	1.7448e+006
3782	1.0754e+006
3782	8.0254e+005
3783	1.7939e+006
3783	2.0197e+006
3784	2.0255e+006
3784	1.6185e+006
3785	1.4132e+006
3785	7.8295e+005
3786	2.6417e+006
3786	1.897e+006
3787	4.363e+006
3787	2.7333e+006
3788	4.9849e+006
3788	3.9792e+006
3789	5.1283e+006
3789	3.7397e+006
3790	3.2065e+006
3790	3.2718e+006
3791	1.1936e+006
3791	1.2528e+006
3792	2.9381e+006
3792	2.3562e+006
3793	2.0845e+006
3793	2.1841e+006
3794	1.7703e+006
3794	1.6225e+006
3795	4.0648e+006
3795	4.8587e+006
3796	5.4431e+006
3796	5.2275e+006
3797	3.879e+006
3797	4.9572e+006
3798	1.797e+006
3798	1.9316e+006
3799	3.0904e+006
3799	4.1257e+006
3800	1.1065e+006
3800	1.3096e+006
3801	4.3882e+006
3801	4.8498e+006
3802	1.2679e+006
3802	9.1462e+005
3803	4.0347e+006
3803	3.4207e+006
3804	3.5405e+006
3804	2.4448e+006
3805	3.5066e+006
3805	1.9463e+006
3806	2.6123e+006
3806	1.9031e+006
3807	3.9402e+006
3807	2.0504e+006
3808	2.6485e+006
3808	2.8444e+006
3809	3.8034e+006
3809	3.8753e+006
3810	3.9257e+006
3810	3.3616e+006
3811	2.8447e+006
3811	2.9687e+006
3812	2.9625e+006
3812	4.3552e+006
3813	3.4977e+006
3813	3.8742e+006
3814	3.9525e+006
3814	5.2496e+006
3815	1.8311e+006
3815	2.1501e+006
3816	4.3432e+006
3816	4.1677e+006
3817	1.4471e+006
3817	1.7509e+006
3818	1.9498e+006
3818	2.6589e+006
3819	2.8206e+006
3819	2.9382e+006
3820	1.3724e+006
3820	1.7452e+006
3821	2.8157e+006
3821	2.8698e+006
3822	2.9849e+006
3822	4.5443e+006
3823	4.5842e+006
3823	5.3424e+006
3824	2.4728e+006
3824	2.0198e+006
3825	3.5927e+006
3825	4.6506e+006
3826	2.6831e+006
3826	3.3414e+006
3827	2.7397e+006
3827	4.176e+006
3828	3.9042e+006
3828	3.9914e+006
3829	2.5682e+006
3829	2.9242e+006
3830	2.3617e+006
3830	2.1053e+006
3831	4.5218e+006
3831	2.866e+006
3832	1.2612e+006
3832	3.5934e+006
3833	1.61e+006
3833	2.0788e+006
3834	2.5091e+006
3834	2.0088e+006
3835	6.0251e+006
3835	6.5522e+006
3836	5.8704e+006
3836	4.5103e+006
3837	2.2729e+006
3837	1.2104e+006
3838	1.8966e+006
3838	6.6349e+005
3839	1.9726e+006
3839	2.3679e+006
3840	4.9255e+006
3840	4.6629e+006
3841	1.3185e+006
3841	1.3161e+006
3842	1.5603e+006
3842	1.2899e+006
3843	1.8667e+006
3843	1.8135e+006
3844	7.6436e+005
3844	6.6009e+005
3845	3.0445e+006
3845	3.2398e+006
3846	1.6383e+006
3846	1.8891e+006
3847	2.9832e+006
3847	2.4531e+006
3848	1.4534e+006
3848	1.3307e+006
3849	1.5507e+006
3849	1.2257e+006
3850	3.8112e+006
3850	3.3317e+006
3851	7.837e+005
3851	9.1035e+005
3852	1.361e+006
3852	1.4823e+006
3853	1.4008e+006
3853	1.3989e+006
3854	3.4303e+006
3854	3.7858e+006
3855	1.6787e+006
3855	1.7866e+006
3856	1.1224e+006
3856	1.4828e+006
3857	1.1425e+006
3857	1.4033e+006
3858	3.2011e+006
3858	5.105e+006
3859	4.5324e+006
3859	5.1761e+006
3860	1.4365e+006
3860	8.3173e+005
3861	3.6874e+005
3861	1.4319e+006
3862	1.7054e+006
3862	1.6572e+006
3863	1.2424e+006
3863	6.9629e+005
3864	4.2081e+005
3864	9.8638e+005
3865	1.3832e+006
3865	1.3867e+006
3866	6.1373e+006
3866	5.3837e+006
3867	3.8218e+006
3867	2.3733e+006
3868	1.7343e+006
3868	3.0313e+006
3869	2.0346e+006
3869	3.0166e+006
3870	4.6072e+006
3870	3.4148e+006
3871	2.3282e+006
3871	2.4964e+006
3872	4.5385e+006
3872	4.0119e+006
3873	2.4381e+006
3873	1.9232e+006
3874	4.1372e+006
3874	3.4945e+006
3875	4.3162e+006
3875	3.7844e+006
3876	2.958e+006
3876	3.5349e+006
3877	1.5257e+006
3877	2.4619e+006
3878	2.3794e+006
3878	2.5282e+006
3879	2.4128e+006
3879	3.6809e+006
3880	1.3242e+006
3880	8.2203e+005
3881	3.6405e+006
3881	2.4884e+006
3882	1.9777e+006
3882	1.6068e+006
3883	3.2508e+006
3883	3.0518e+006
3884	3.3773e+006
3884	3.9128e+006
3885	3.574e+006
3885	3.8195e+006
3886	5.7308e+006
3886	5.9451e+006
3887	4.5647e+006
3887	4.4743e+006
3888	4.3102e+006
3888	4.3078e+006
3889	1.6489e+006
3889	9.3975e+005
3890	3.8826e+006
3890	2.6962e+006
3891	1.8056e+006
3891	1.7305e+006
3892	4.5211e+006
3892	3.8859e+006
3893	3.1033e+006
3893	2.9683e+006
3894	4.159e+006
3894	4.6007e+006
3895	1.6735e+006
3895	1.7385e+006
3896	1.1847e+006
3896	9.7663e+005
3897	3.5546e+006
3897	3.3912e+006
3898	1.7267e+006
3898	1.1981e+006
3899	1.0805e+006
3899	9.2801e+005
3900	1.5027e+006
3900	1.5056e+006
3901	2.9195e+006
3901	3.1513e+006
3902	1.3216e+006
3902	1.3709e+006
3903	1.4719e+006
3903	1.1053e+006
3904	1.6377e+006
3904	2.2607e+006
3905	9.0148e+005
3905	1.5368e+006
3906	7.7161e+005
3906	7.944e+005
3907	4.7581e+006
3907	6.2549e+006
3908	1.106e+006
3908	1.4609e+006
3909	7.472e+005
3909	1.2533e+006
3910	1.2117e+006
3910	2.0431e+006
3911	3.2121e+006
3911	4.4626e+006
3912	1.652e+006
3912	4.0484e+005
3913	8.8339e+005
3913	5.9827e+005
3914	1.2245e+006
3914	6.3537e+005
3915	5.9555e+006
3915	6.4044e+006
3916	2.6124e+006
3916	2.6816e+006
3917	2.3743e+006
3917	1.9738e+006
3918	5.1081e+006
3918	5.7644e+006
3919	2.7565e+006
3919	3.5703e+006
3920	3.4115e+006
3920	3.9566e+006
3921	1.6063e+006
3921	3.5865e+006
3922	2.7673e+006
3922	2.7628e+006
3923	6.1487e+006
3923	5.5302e+006
3924	1.8697e+006
3924	6.9415e+005
3925	4.0499e+006
3925	1.9262e+006
3926	4.3402e+006
3926	2.6185e+006
3927	3.4157e+006
3927	3.9903e+006
3928	3.8096e+006
3928	5.3597e+006
3929	2.8805e+006
3929	3.3168e+006
3930	3.5498e+006
3930	3.7603e+006
3931	2.365e+006
3931	2.5549e+006
3932	3.3812e+006
3932	2.5291e+006
3933	3.9449e+006
3933	4.6845e+006
3934	3.0155e+006
3934	4.1053e+006
3935	2.4733e+006
3935	3.9775e+006
3936	2.7572e+006
3936	3.1721e+006
3937	4.0106e+006
3937	4.2388e+006
3938	3.879e+006
3938	3.2358e+006
3939	6.9871e+006
3939	7.2878e+006
3940	2.8528e+006
3940	2.9928e+006
3941	4.9406e+006
3941	4.3257e+006
3942	5.7192e+006
3942	3.9233e+006
3943	3.6888e+006
3943	3.9201e+006
3944	5.3335e+006
3944	2.8385e+006
3945	1.8852e+006
3945	2.4663e+006
3946	3.6924e+006
3946	3.223e+006
3947	2.8846e+006
3947	2.7806e+006
3948	3.2214e+006
3948	3.3299e+006
3949	1.1281e+006
3949	1.1093e+006
3950	5.2689e+006
3950	4.8711e+006
3951	3.6222e+006
3951	2.1283e+006
3952	1.7758e+006
3952	1.9268e+006
3953	3.5008e+006
3953	1.6027e+006
3954	4.9326e+005
3954	6.1907e+005
3955	2.1695e+006
3955	2.7227e+006
3956	1.8652e+006
3956	1.3181e+006
3957	8.4287e+005
3957	8.7722e+005
3958	4.1159e+005
3958	1.0196e+006
3959	2.3868e+006
3959	2.4617e+006
3960	2.6289e+006
3960	2.1657e+006
3961	4.078e+006
3961	3.1974e+006
3962	3.6013e+006
3962	3.2827e+006
3963	2.5464e+006
3963	1.8166e+006
3964	4.2161e+006
3964	3.1871e+006
3965	1.0865e+006
3965	8.6394e+005
3966	1.1009e+006
3966	1.2099e+006
3967	4.3116e+006
3967	3.5697e+006
3968	3.0371e+006
3968	4.6772e+006
3969	9.5395e+005
3969	1.6768e+006
3970	1.6095e+006
3970	1.3509e+006
3971	8.8352e+005
3971	9.8482e+005
3972	8.7494e+005
3972	5.8175e+005
3973	7.4408e+005
3973	1.5159e+006
3974	2.3946e+006
3974	1.7642e+006
3975	2.5306e+006
3975	9.4679e+005
3976	3.4955e+006
3976	2.5054e+006
3977	1.1174e+006
3977	1.6017e+006
3978	2.5059e+006
3978	2.0126e+006
3979	1.1184e+006
3979	2.6288e+006
3980	1.404e+006
3980	2.614e+006
3981	1.8048e+006
3981	1.9194e+006
3982	2.9775e+006
3982	2.688e+006
3983	3.3324e+006
3983	3.1463e+006
3984	2.1155e+006
3984	2.7665e+006
3985	3.5075e+006
3985	3.2415e+006
3986	1.0162e+006
3986	1.5114e+006
3987	4.5316e+006
3987	3.7108e+006
3988	1.8581e+006
3988	1.9884e+006
3989	2.8607e+006
3989	1.9234e+006
3990	1.8587e+006
3990	3.7913e+006
3991	2.3853e+006
3991	1.4369e+006
3992	2.1295e+006
3992	1.4866e+006
3993	1.3809e+006
3993	2.7316e+006
3994	1.4427e+006
3994	1.043e+006
3995	7.1586e+005
3995	8.3621e+005
3996	2.1836e+006
3996	1.5152e+006
3997	8.804e+005
3997	1.9476e+006
3998	0.
3998	0.
3999	5.2201e+005
3999	4.062e+005
4000	1.5518e+006
4000	1.1388e+006
4001	1.8862e+006
4001	1.0284e+006
4002	5.6369e+005
4002	8.3623e+005
4003	5.3639e+005
4003	5.5484e+005
4004	0.
4004	0.
4005	0.
4005	0.
4006	11493
4006	3703.1
4007	0.
4007	0.
4008	0.
4008	0.
4009	0.
4009	0.
4010	0.
4010	0.
4011	0.
4011	0.
4012	3.8385e+005
4012	5.4668e+005
4013	0.
4013	0.
4014	0.
4014	0.
4015	0.
4015	0.
4016	0.
4016	0.
4017	0.
4017	0.
4018	0.
4018	0.
4019	0.
4019	0.
4020	0.
4020	0.
4021	0.
4021	0.
4022	0.
4022	0.
4023	0.
4023	0.
4024	0.
4024	0.
4025	0.
4025	0.
4026	0.
4026	0.
4027	0.
4027	0.
4028	0.
4028	0.
4029	0.
4029	0.
4030	0.
4030	0.
4031	0.
4031	0.
4032	0.
4032	0.
4033	0.
4033	0.
4034	0.
4034	0.
4035	0.
4035	0.
4036	0.
4036	0.
4037	0.
4037	0.
4038	0.
4038	0.
4039	0.
4039	0.
4040	0.
4040	0.
4041	0.
4041	0.
4042	0.
4042	0.
4043	0.
4043	0.
4044	0.
4044	0.
4045	0.
4045	0.
4046	0.
4046	0.
4047	0.
4047	0.
4048	0.
4048	0.
4049	0.
4049	0.
4050	0.
4050	0.
4051	0.
4051	0.
4052	0.
4052	0.
4053	0.
4053	0.
4054	0.
4054	0.
4055	0.
4055	0.
4056	0.
4056	0.
4057	0.
4057	0.
4058	0.
4058	0.
4059	0.
4059	0.
4060	3.0865e+005
4060	2.3096e+006
4061	5.4332e+005
4061	2.4445e+005
4062	7.2648e+005
4062	7.7955e+005
4063	1.4662e+006
4063	5.8365e+005
4064	6.0163e+005
4064	1.5846e+006
4065	6.9325e+005
4065	1.1768e+006
4066	1.4004e+006
4066	1.9655e+006
4067	6.073e+005
4067	1.0514e+006
4068	1.3056e+006
4068	7.0525e+005
4069	1.9025e+006
4069	1.24e+006
4070	1.2633e+006
4070	1.0836e+006
4071	8.8235e+005
4071	5.2536e+005
4072	1.1459e+006
4072	8.1675e+005
4073	1.7245e+006
4073	1.3418e+006
4074	1.6492e+006
4074	8.6536e+005
4075	1.2145e+006
4075	8.6313e+005
4076	9.8434e+005
4076	8.5897e+005
4077	2.905e+006
4077	2.0609e+006
4078	2.4166e+006
4078	2.6255e+006
4079	1.7707e+006
4079	1.6456e+006
4080	1.0866e+006
4080	1.5898e+006
4081	1.5772e+006
4081	1.0747e+006
4082	1.6729e+006
4082	1.9039e+006
4083	2.5972e+006
4083	2.6913e+006
4084	1.3053e+006
4084	1.5369e+006
4085	1.7453e+006
4085	1.7382e+006
4086	2.0662e+006
4086	1.6312e+006
4087	7.7338e+005
4087	7.8258e+005
4088	1.6028e+006
4088	1.0553e+006
4089	2.105e+006
4089	1.9942e+006
4090	1.2103e+006
4090	2.4931e+006
4091	4.5043e+005
4091	8.2901e+005
4092	3.5473e+006
4092	3.1602e+006
4093	2.0013e+006
4093	1.7912e+006
4094	1.8065e+006
4094	6.6041e+005
4095	1.4932e+006
4095	1.7743e+006
4096	1.7983e+006
4096	1.5755e+006
4097	1.2395e+006
4097	1.378e+006
4098	2.028e+006
4098	2.3939e+006
4099	2.9827e+006
4099	3.0352e+006
4100	2.4403e+006
4100	3.5121e+006
4101	3.4848e+006
4101	2.551e+006
4102	2.7853e+006
4102	3.5902e+006
4103	1.1599e+006
4103	7.3022e+005
4104	1.7102e+006
4104	1.472e+006
4105	2.0537e+006
4105	2.0763e+006
4106	3.8667e+006
4106	2.3692e+006
4107	1.0928e+006
4107	6.9102e+005
4108	1.6267e+006
4108	1.1054e+006
4109	1.2296e+006
4109	1.1943e+006
4110	2.0666e+006
4110	2.1791e+006
4111	2.2088e+006
4111	2.0767e+006
4112	2.3648e+006
4112	2.0617e+006
4113	1.8669e+006
4113	2.3584e+006
4114	1.9679e+006
4114	1.6557e+006
4115	1.9659e+006
4115	1.2028e+006
4116	3.8481e+006
4116	3.635e+006
4117	2.3316e+006
4117	1.8787e+006
4118	1.1848e+006
4118	1.1549e+006
4119	3.174e+006
4119	1.6571e+006
4120	2.646e+006
4120	2.3882e+006
4121	2.9269e+006
4121	2.414e+006
4122	1.5482e+006
4122	1.9152e+006
4123	1.8162e+006
4123	1.112e+006
4124	3.3267e+006
4124	3.6458e+006
4125	2.8043e+006
4125	2.5743e+006
4126	3.6868e+006
4126	2.868e+006
4127	2.7991e+006
4127	2.4608e+006
4128	4.4152e+006
4128	4.1692e+006
4129	1.4401e+006
4129	1.0497e+006
4130	1.0883e+006
4130	1.2736e+006
4131	1.8484e+006
4131	2.3794e+006
4132	1.8437e+006
4132	1.109e+006
4133	1.1418e+006
4133	1.4917e+006
4134	8.8067e+005
4134	1.7397e+006
4135	2.5265e+006
4135	1.2273e+006
4136	4.8891e+006
4136	5.3726e+006
4137	1.9767e+006
4137	1.582e+006
4138	1.5288e+006
4138	2.2019e+006
4139	3.4616e+006
4139	2.0709e+006
4140	1.7178e+006
4140	2.6303e+006
4141	1.936e+006
4141	1.1588e+006
4142	2.9496e+006
4142	2.7878e+006
4143	2.4089e+006
4143	3.0036e+006
4144	2.8392e+006
4144	9.2878e+005
4145	1.0823e+006
4145	1.0756e+006
4146	2.9441e+006
4146	2.8781e+006
4147	1.4617e+006
4147	1.4669e+006
4148	1.6379e+006
4148	1.6743e+006
4149	2.9617e+006
4149	3.0401e+006
4150	2.2333e+006
4150	3.0926e+006
4151	3.2205e+006
4151	3.3275e+006
4152	1.3689e+006
4152	1.4259e+006
4153	3.0393e+006
4153	3.5083e+006
4154	2.1105e+006
4154	1.8086e+006
4155	1.8644e+006
4155	1.766e+006
4156	1.0514e+006
4156	9.6497e+005
4157	1.3213e+006
4157	1.0484e+006
4158	1.9895e+006
4158	2.1138e+006
4159	1.8305e+006
4159	1.5397e+006
4160	1.2597e+006
4160	1.6142e+006
4161	2.3483e+006
4161	1.7424e+006
4162	1.4554e+006
4162	1.7277e+006
4163	2.0865e+006
4163	9.1721e+005
4164	1.9489e+006
4164	1.7254e+006
4165	2.2461e+006
4165	3.0993e+006
4166	1.617e+006
4166	1.8566e+006
4167	2.5138e+006
4167	2.3313e+006
4168	1.8084e+006
4168	2.14e+006
4169	3.8275e+006
4169	3.4059e+006
4170	9.3216e+005
4170	1.4049e+006
4171	5.3157e+005
4171	1.1994e+006
4172	1.1696e+006
4172	1.6787e+006
4173	2.5643e+006
4173	2.296e+006
4174	2.8201e+006
4174	2.6849e+006
4175	1.5909e+006
4175	1.9197e+006
4176	3.4702e+006
4176	3.9305e+006
4177	1.407e+006
4177	1.5952e+006
4178	1.8041e+006
4178	1.3994e+006
4179	1.7024e+006
4179	1.5883e+006
4180	1.8821e+006
4180	1.2546e+006
4181	2.2435e+006
4181	2.4778e+006
4182	2.8072e+006
4182	2.075e+006
4183	2.1456e+006
4183	3.0304e+006
4184	2.8106e+006
4184	2.4675e+006
4185	2.9081e+006
4185	1.6529e+006
4186	8.0615e+005
4186	3.0247e+006
4187	1.1176e+006
4187	1.8306e+006
4188	2.2739e+006
4188	1.8353e+006
4189	2.2156e+006
4189	2.2796e+006
4190	1.867e+006
4190	2.6929e+006
4191	2.5186e+006
4191	2.9073e+006
4192	4.4308e+006
4192	3.435e+006
4193	2.3408e+006
4193	2.3331e+006
4194	3.5107e+006
4194	4.1856e+006
4195	2.7502e+006
4195	2.9569e+006
4196	2.6556e+006
4196	2.483e+006
4197	1.8832e+006
4197	1.445e+006
4198	3.7259e+006
4198	2.7698e+006
4199	3.e+006
4199	1.3712e+006
4200	9.99e+005
4200	1.1442e+006
4201	1.801e+006
4201	3.074e+006
4202	2.1567e+006
4202	2.6372e+006
4203	1.8567e+006
4203	2.0921e+006
4204	1.5142e+006
4204	1.8903e+006
4205	1.9043e+006
4205	1.3442e+006
4206	1.893e+006
4206	1.314e+006
4207	3.9286e+006
4207	3.3213e+006
4208	1.6192e+006
4208	2.2135e+006
4209	1.6003e+006
4209	2.1563e+006
4210	3.3416e+006
4210	2.841e+006
4211	8.3936e+005
4211	1.6957e+006
4212	2.1533e+006
4212	2.4702e+006
4213	9.3431e+005
4213	1.431e+006
4214	2.6695e+006
4214	2.9456e+006
4215	2.3869e+006
4215	1.3632e+006
4216	3.3193e+006
4216	2.279e+006
4217	2.5794e+006
4217	2.1388e+006
4218	1.972e+006
4218	1.3324e+006
4219	1.2488e+006
4219	1.817e+006
4220	2.5069e+006
4220	1.9772e+006
4221	3.7028e+006
4221	3.6274e+006
4222	3.0924e+006
4222	3.6096e+006
4223	2.5254e+006
4223	3.1839e+006
4224	3.3696e+006
4224	3.4836e+006
4225	2.056e+006
4225	2.3677e+006
4226	2.4077e+006
4226	2.2286e+006
4227	2.1731e+006
4227	2.4064e+006
4228	9.1613e+005
4228	1.0776e+006
4229	2.3815e+006
4229	2.4064e+006
4230	2.0644e+006
4230	1.53e+006
4231	3.7872e+006
4231	3.8462e+006
4232	3.4395e+006
4232	2.9855e+006
4233	2.0695e+006
4233	2.467e+006
4234	4.5579e+006
4234	4.4951e+006
4235	2.1502e+006
4235	2.5861e+006
4236	4.401e+006
4236	4.1785e+006
4237	2.4351e+006
4237	2.494e+006
4238	2.6447e+006
4238	2.4045e+006
4239	6.8426e+005
4239	1.1707e+006
4240	5.8013e+005
4240	1.3782e+006
4241	1.2345e+006
4241	7.9456e+005
4242	1.9031e+006
4242	2.028e+006
4243	1.0552e+006
4243	1.5945e+006
4244	3.1036e+006
4244	3.651e+006
4245	2.9665e+006
4245	2.8662e+006
4246	1.603e+006
4246	1.8005e+006
4247	1.8641e+006
4247	4.0294e+006
4248	1.1209e+006
4248	3.3574e+006
4249	1.8488e+006
4249	2.7578e+006
4250	2.0704e+006
4250	1.4034e+006
4251	2.7905e+006
4251	2.4521e+006
4252	2.7888e+006
4252	3.4584e+006
4253	2.0619e+006
4253	2.8846e+006
4254	1.4967e+006
4254	1.666e+006
4255	1.6826e+006
4255	1.6866e+006
4256	2.1141e+006
4256	1.6813e+006
4257	2.2979e+006
4257	2.4778e+006
4258	4.2053e+006
4258	2.1853e+006
4259	2.3717e+006
4259	2.5634e+006
4260	1.4858e+006
4260	2.0132e+006
4261	3.3411e+006
4261	3.1384e+006
4262	3.2404e+006
4262	2.3913e+006
4263	3.1245e+006
4263	2.8674e+006
4264	3.6744e+006
4264	4.8605e+006
4265	1.5816e+006
4265	1.8932e+006
4266	2.0671e+006
4266	2.9548e+006
4267	3.176e+006
4267	2.5517e+006
4268	3.0781e+006
4268	1.8154e+006
4269	3.2794e+006
4269	1.8655e+006
4270	2.168e+006
4270	3.5087e+006
4271	1.2095e+006
4271	1.9525e+006
4272	4.4842e+006
4272	4.1747e+006
4273	2.5513e+006
4273	3.8235e+006
4274	3.4258e+006
4274	3.2695e+006
4275	2.8595e+006
4275	4.413e+006
4276	3.3951e+006
4276	3.3944e+006
4277	2.5583e+006
4277	1.6702e+006
4278	2.8757e+006
4278	4.6441e+006
4279	3.8302e+006
4279	4.0469e+006
4280	2.5752e+006
4280	2.68e+006
4281	4.3826e+006
4281	4.5124e+006
4282	1.645e+006
4282	2.1266e+006
4283	5.6706e+005
4283	2.2284e+006
4284	2.1739e+006
4284	1.5263e+006
4285	8.0793e+005
4285	1.1532e+006
4286	1.8371e+006
4286	9.0279e+005
4287	1.2715e+006
4287	1.0197e+006
4288	1.6429e+006
4288	1.376e+006
4289	1.1656e+006
4289	1.0996e+006
4290	1.95e+006
4290	2.0669e+006
4291	1.3515e+006
4291	2.2628e+006
4292	2.124e+006
4292	2.2619e+006
4293	3.3565e+006
4293	2.1308e+006
4294	4.1718e+006
4294	5.0641e+006
4295	5.8598e+005
4295	2.0973e+006
4296	2.8256e+006
4296	1.8093e+006
4297	4.1799e+006
4297	4.6691e+006
4298	4.611e+005
4298	9.3961e+005
4299	1.3376e+006
4299	1.6165e+006
4300	7.9671e+005
4300	1.0592e+006
4301	6.9628e+005
4301	7.8637e+005
4302	2.5537e+006
4302	2.0019e+006
4303	0.
4303	0.
4304	2.4196e+006
4304	2.4304e+006
4305	9.0084e+005
4305	6.9205e+005
4306	97303
4306	5.1754e+005
4307	0.
4307	0.
4308	0.
4308	0.
4309	0.
4309	0.
4310	0.
4310	0.
4311	1457.
4311	1226.2
4312	41222
4312	95170
4313	49885
4313	1.2947e+005
4314	0.
4314	0.
4315	0.
4315	0.
4316	8.3959e+005
4316	4.8195e+005
4317	0.
4317	0.
4318	0.
4318	0.
4319	0.
4319	0.
4320	0.
4320	0.
4321	0.
4321	0.
4322	0.
4322	0.
4323	0.
4323	0.
4324	0.
4324	0.
4325	0.
4325	0.
4326	0.
4326	0.
4327	0.
4327	0.
4328	0.
4328	0.
4329	0.
4329	0.
4330	0.
4330	0.
4331	0.
4331	0.
4332	0.
4332	0.
4333	0.
4333	0.
4334	0.
4334	0.
4335	0.
4335	0.
4336	1.905e+006
4336	4.5196e+005
4337	1.5824e+006
4337	1.0542e+006
4338	9.1221e+005
4338	4.497e+005
4339	8.2633e+005
4339	2.1598e+006
4340	5.8151e+005
4340	1.0193e+006
4341	1.4429e+006
4341	1.9428e+006
4342	1.0667e+006
4342	9.0841e+005
4343	1.425e+006
4343	1.1993e+006
4344	9.7171e+005
4344	4.3953e+005
4345	7.5842e+005
4345	4.9059e+005
4346	7.4246e+005
4346	4.8713e+005
4347	7.0599e+005
4347	5.2127e+005
4348	2.2625e+006
4348	1.5475e+006
4349	1.6659e+006
4349	6.4243e+005
4350	9.4541e+005
4350	4.4923e+005
4351	1.6647e+006
4351	1.1441e+006
4352	1.0724e+006
4352	8.6001e+005
4353	1.9289e+006
4353	1.707e+006
4354	4.2313e+005
4354	4.4185e+005
4355	1.113e+006
4355	1.2123e+006
4356	7.2055e+005
4356	9.756e+005
4357	8.0701e+005
4357	1.0411e+006
4358	8.0928e+005
4358	8.9053e+005
4359	4.5448e+005
4359	1.4832e+005
4360	1.1995e+006
4360	2.3291e+006
4361	2.2907e+006
4361	1.5282e+006
4362	1.3287e+006
4362	1.1528e+006
4363	2.0433e+006
4363	4.1816e+005
4364	5.9139e+005
4364	1.0373e+006
4365	2.22e+006
4365	3.0913e+006
4366	7.6429e+005
4366	7.8418e+005
4367	9.6521e+005
4367	1.6061e+006
4368	1.3525e+006
4368	1.0432e+006
4369	2.1075e+006
4369	1.2839e+006
4370	6.4107e+005
4370	1.1079e+006
4371	91986
4371	4.8312e+005
4372	1.0658e+005
4372	6.7753e+005
4373	1.0107e+005
4373	6.1493e+005
4374	1.3426e+006
4374	1.1066e+006
4375	1.1687e+006
4375	7.0879e+005
4376	9.6011e+005
4376	1.0798e+006
4377	3.8369e+005
4377	5.4294e+005
4378	2.3784e+006
4378	3.8579e+005
4379	9.4478e+005
4379	9.2329e+005
4380	8.9778e+005
4380	9.4858e+005
4381	5.8205e+005
4381	4.7765e+005
4382	9.0136e+005
4382	4.2189e+005
4383	2.2071e+006
4383	1.3477e+006
4384	1.2023e+006
4384	6.595e+005
4385	9.969e+005
4385	5.5392e+005
4386	7.7268e+005
4386	6.8379e+005
4387	8.8962e+005
4387	7.1977e+005
4388	8.6555e+005
4388	8.3732e+005
4389	8.0743e+005
4389	8.0416e+005
4390	2.056e+006
4390	1.7711e+006
4391	1.3394e+006
4391	8.7945e+005
4392	2.0705e+006
4392	1.4662e+006
4393	6.2717e+005
4393	4.8467e+005
4394	1.3171e+006
4394	7.6742e+005
4395	8.5816e+005
4395	5.3885e+005
4396	1.4447e+006
4396	1.2114e+006
4397	1.4613e+006
4397	1.1623e+006
4398	1.1795e+006
4398	8.9322e+005
4399	1.0609e+006
4399	3.1225e+005
4400	8.8968e+005
4400	8.0211e+005
4401	8.0103e+005
4401	7.2095e+005
4402	8.4014e+005
4402	6.6338e+005
4403	1.7932e+006
4403	1.5993e+006
4404	1.5279e+006
4404	1.1301e+006
4405	1.1707e+006
4405	1.3714e+006
4406	1.8353e+006
4406	8.475e+005
4407	1.4814e+006
4407	6.8191e+005
4408	1.651e+006
4408	1.1817e+006
4409	2.6576e+005
4409	5.2013e+005
4410	4.8959e+005
4410	6.6697e+005
4411	7.7849e+005
4411	1.0113e+006
4412	1.0051e+006
4412	1.7254e+006
4413	2.1085e+006
4413	1.6507e+006
4414	2.0707e+006
4414	1.1247e+006
4415	2.3684e+006
4415	2.6407e+006
4416	1.6572e+006
4416	7.2722e+005
4417	5.2026e+005
4417	7.1667e+005
4418	3.3139e+005
4418	1.6398e+005
4419	1.3329e+006
4419	1.0098e+006
4420	1.3058e+006
4420	8.4371e+005
4421	1.2818e+006
4421	9.172e+005
4422	2.1857e+006
4422	1.2562e+006
4423	1.1857e+006
4423	1.3995e+006
4424	1.4131e+006
4424	1.2931e+006
4425	1.4671e+006
4425	1.3328e+006
4426	1.753e+006
4426	1.4682e+006
4427	1.871e+006
4427	2.2534e+006
4428	2.6504e+006
4428	1.8239e+006
4429	2.9014e+006
4429	3.3684e+006
4430	1.3062e+006
4430	2.446e+006
4431	9.8827e+005
4431	1.0449e+006
4432	2.2864e+006
4432	2.6733e+006
4433	2.1279e+006
4433	2.6332e+006
4434	1.9115e+006
4434	9.4457e+005
4435	2.6189e+006
4435	2.0886e+006
4436	2.5328e+006
4436	3.2608e+006
4437	2.676e+006
4437	3.0833e+006
4438	2.3907e+006
4438	2.3548e+006
4439	2.6897e+006
4439	2.9326e+006
4440	3.4797e+006
4440	3.2599e+006
4441	3.2234e+006
4441	2.9252e+006
4442	1.0719e+006
4442	2.591e+006
4443	2.4357e+006
4443	2.5277e+006
4444	3.776e+006
4444	2.5475e+006
4445	3.1707e+006
4445	4.297e+006
4446	1.4029e+006
4446	1.682e+006
4447	3.2261e+006
4447	1.9528e+006
4448	3.2536e+006
4448	3.1895e+006
4449	2.3534e+006
4449	2.2361e+006
4450	2.6527e+006
4450	2.811e+006
4451	2.8786e+006
4451	2.4847e+006
4452	3.2568e+006
4452	4.4491e+006
4453	4.4574e+006
4453	3.6432e+006
4454	4.127e+006
4454	4.8726e+006
4455	3.0703e+006
4455	2.9039e+006
4456	5.0871e+006
4456	2.9853e+006
4457	2.4531e+006
4457	2.3734e+006
4458	3.2109e+006
4458	3.3219e+006
4459	3.5031e+006
4459	2.5287e+006
4460	4.3075e+006
4460	4.0745e+006
4461	5.849e+006
4461	5.6619e+006
4462	3.3656e+006
4462	2.7683e+006
4463	4.4923e+006
4463	4.2092e+006
4464	1.8844e+006
4464	2.1883e+006
4465	2.6804e+006
4465	2.5174e+006
4466	6.5308e+006
4466	3.557e+006
4467	1.0951e+006
4467	5.2968e+005
4468	2.3781e+006
4468	2.2602e+006
4469	2.8639e+006
4469	3.6434e+006
4470	1.4402e+006
4470	8.4206e+005
4471	3.2686e+006
4471	3.0501e+006
4472	4.3488e+006
4472	3.6586e+006
4473	3.3867e+006
4473	3.4095e+006
4474	3.844e+006
4474	3.9971e+006
4475	1.9689e+006
4475	2.2528e+006
4476	1.5249e+006
4476	1.8334e+006
4477	1.58e+006
4477	2.0999e+006
4478	3.2503e+006
4478	3.0721e+006
4479	3.2071e+006
4479	2.8848e+006
4480	7.4803e+006
4480	6.185e+006
4481	3.7879e+006
4481	3.8627e+006
4482	3.5009e+006
4482	2.4306e+006
4483	3.41e+006
4483	3.134e+006
4484	1.7371e+006
4484	1.4905e+006
4485	9.6587e+005
4485	3.868e+005
4486	1.8787e+006
4486	1.2734e+006
4487	7.6171e+005
4487	5.3527e+005
4488	2.3654e+006
4488	2.7365e+006
4489	1.1826e+006
4489	1.0751e+006
4490	1.1198e+006
4490	1.7644e+006
4491	1.2949e+006
4491	1.0143e+006
4492	1.0662e+006
4492	1.2067e+006
4493	2.1561e+006
4493	1.84e+006
4494	1.0514e+006
4494	9.9445e+005
4495	1.5625e+006
4495	7.6133e+005
4496	2.8265e+006
4496	1.5293e+006
4497	5.337e+006
4497	4.6442e+006
4498	2.9049e+006
4498	2.6105e+006
4499	1.4102e+006
4499	3.0786e+006
4500	1.1008e+006
4500	1.3557e+006
4501	3.4867e+006
4501	3.5416e+006
4502	2.0239e+006
4502	1.0639e+006
4503	2.0861e+006
4503	2.1469e+006
4504	1.2363e+006
4504	1.5567e+006
4505	1.8404e+006
4505	3.6842e+006
4506	6.0894e+005
4506	1.6735e+006
4507	1.2286e+006
4507	1.8691e+006
4508	3.6933e+006
4508	3.9744e+006
4509	1.9004e+006
4509	2.6358e+006
4510	1.8188e+006
4510	7.3531e+005
4511	3.7726e+006
4511	3.7279e+006
4512	1.5026e+006
4512	2.7488e+006
4513	4.0897e+006
4513	3.8388e+006
4514	4.7425e+006
4514	4.3756e+006
4515	3.797e+006
4515	3.9807e+006
4516	4.3698e+006
4516	4.9809e+006
4517	3.5293e+006
4517	4.8162e+006
4518	4.4991e+006
4518	5.1753e+006
4519	5.9449e+006
4519	3.8657e+006
4520	3.5162e+006
4520	2.8228e+006
4521	3.0475e+006
4521	2.0689e+006
4522	3.2092e+006
4522	1.4762e+006
4523	2.7063e+006
4523	3.4795e+006
4524	2.6734e+006
4524	2.7036e+006
4525	4.6996e+006
4525	3.6391e+006
4526	5.0746e+006
4526	4.6383e+006
4527	7.1196e+006
4527	7.1967e+006
4528	6.3511e+006
4528	4.5962e+006
4529	5.4541e+006
4529	5.1151e+006
4530	6.4184e+006
4530	6.6903e+006
4531	2.3736e+006
4531	1.0589e+006
4532	1.7853e+006
4532	1.6338e+006
4533	2.2616e+006
4533	2.7601e+006
4534	2.7136e+006
4534	3.5087e+006
4535	7.393e+006
4535	3.2184e+006
4536	3.0985e+006
4536	2.5987e+006
4537	2.5862e+006
4537	3.6739e+006
4538	2.8051e+006
4538	3.3141e+006
4539	2.8176e+006
4539	5.7602e+006
4540	3.3287e+006
4540	2.5827e+006
4541	4.4873e+006
4541	4.6178e+006
4542	2.9495e+006
4542	2.1176e+006
4543	2.2718e+006
4543	1.9541e+006
4544	1.9014e+006
4544	2.3664e+006
4545	5.2766e+006
4545	5.0573e+006
4546	3.9111e+006
4546	4.1762e+006
4547	6.5284e+006
4547	5.2906e+006
4548	3.7706e+006
4548	4.4062e+006
4549	6.4153e+006
4549	6.0006e+006
4550	6.2464e+006
4550	6.1065e+006
4551	3.5363e+006
4551	3.4739e+006
4552	4.4606e+006
4552	4.3379e+006
4553	5.3039e+006
4553	6.0076e+006
4554	2.7022e+006
4554	1.3563e+006
4555	3.2655e+006
4555	2.6396e+006
4556	4.3956e+006
4556	4.5068e+006
4557	5.8012e+006
4557	7.0677e+006
4558	3.5416e+006
4558	4.8762e+006
4559	4.9201e+006
4559	3.4722e+006
4560	4.2409e+006
4560	3.526e+006
4561	2.1505e+006
4561	2.3179e+006
4562	2.3685e+006
4562	2.4317e+006
4563	1.3735e+006
4563	1.5226e+006
4564	2.2468e+006
4564	2.4789e+006
4565	3.4288e+006
4565	3.3301e+006
4566	1.8778e+006
4566	2.3939e+006
4567	2.2791e+006
4567	3.5001e+006
4568	1.2138e+006
4568	1.3887e+006
4569	2.0019e+006
4569	1.1702e+006
4570	2.7083e+006
4570	2.7827e+006
4571	3.5382e+006
4571	3.2647e+006
4572	4.247e+006
4572	5.2557e+006
4573	1.3088e+006
4573	1.3122e+006
4574	1.879e+006
4574	2.4194e+006
4575	2.0924e+006
4575	1.9137e+006
4576	1.9585e+006
4576	2.2453e+006
4577	9.5155e+005
4577	1.1157e+006
4578	4.2634e+006
4578	4.5741e+006
4579	2.6148e+006
4579	1.9287e+006
4580	4.289e+006
4580	3.9122e+006
4581	4.8426e+005
4581	1.7671e+006
4582	2.7353e+006
4582	3.7487e+006
4583	1.3542e+006
4583	8.7886e+005
4584	8.1331e+005
4584	1.2369e+006
4585	9.9887e+005
4585	1.6149e+006
4586	1.7196e+006
4586	2.1971e+006
4587	9.7884e+005
4587	1.1917e+006
4588	1.0204e+006
4588	1.1506e+006
4589	1.0031e+006
4589	1.0234e+006
4590	2.3781e+006
4590	2.275e+006
4591	1.5491e+006
4591	1.896e+006
4592	1.0346e+006
4592	1.3465e+006
4593	2.1796e+006
4593	2.3607e+006
4594	1.3018e+006
4594	8.4416e+005
4595	2.0825e+006
4595	1.9809e+006
4596	3.3483e+006
4596	2.1537e+006
4597	8.4648e+006
4597	4.2117e+006
4598	4.5146e+006
4598	1.8934e+006
4599	6.2548e+006
4599	6.5185e+006
4600	5.6677e+006
4600	2.6144e+006
4601	3.3282e+006
4601	3.0492e+006
4602	2.7243e+006
4602	2.7764e+006
4603	4.2052e+006
4603	4.4899e+006
4604	2.2029e+006
4604	3.7073e+006
4605	5.1106e+006
4605	4.3596e+006
4606	3.8567e+006
4606	4.1078e+006
4607	1.8353e+006
4607	3.802e+006
4608	9.3812e+005
4608	3.379e+006
4609	4.4325e+006
4609	3.4006e+006
4610	3.188e+006
4610	2.5692e+006
4611	2.2194e+006
4611	2.245e+006
4612	3.2393e+006
4612	2.8362e+006
4613	1.4324e+006
4613	1.2283e+006
4614	2.316e+006
4614	1.4727e+006
4615	3.9473e+006
4615	3.5561e+006
4616	4.1629e+006
4616	5.4267e+006
4617	4.6273e+006
4617	4.9528e+006
4618	6.2253e+006
4618	6.4242e+006
4619	4.6521e+006
4619	4.6452e+006
4620	4.5841e+006
4620	3.9646e+006
4621	4.1634e+006
4621	2.4988e+006
4622	3.1381e+006
4622	3.1584e+006
4623	4.5916e+006
4623	3.935e+006
4624	4.7818e+006
4624	5.2861e+006
4625	3.3239e+006
4625	4.2536e+006
4626	1.955e+006
4626	2.6005e+006
4627	4.6066e+006
4627	4.8823e+006
4628	7.8941e+006
4628	7.2412e+006
4629	3.3047e+006
4629	3.1046e+006
4630	2.4691e+006
4630	3.0536e+006
4631	2.2298e+006
4631	1.9161e+006
4632	5.0208e+006
4632	5.082e+006
4633	4.938e+006
4633	4.4261e+006
4634	6.6288e+006
4634	6.3455e+006
4635	5.7166e+006
4635	4.0857e+006
4636	8.286e+005
4636	2.7828e+006
4637	4.0217e+006
4637	4.023e+006
4638	3.0383e+006
4638	4.3535e+006
4639	5.3871e+006
4639	5.6489e+006
4640	3.956e+006
4640	4.0924e+006
4641	5.2997e+006
4641	6.4855e+006
4642	2.754e+006
4642	1.163e+006
4643	4.0236e+006
4643	2.3171e+006
4644	2.8305e+006
4644	1.4754e+006
4645	2.6304e+006
4645	3.2552e+006
4646	5.0946e+005
4646	7.3184e+005
4647	1.8814e+006
4647	2.2991e+006
4648	7.3726e+005
4648	1.2001e+006
4649	1.501e+006
4649	9.8945e+005
4650	1.2366e+006
4650	1.2428e+006
4651	1.2371e+006
4651	8.0363e+005
4652	2.8962e+006
4652	3.3841e+006
4653	2.3374e+006
4653	1.8796e+006
4654	1.9217e+006
4654	2.8398e+006
4655	2.9296e+006
4655	3.399e+006
4656	7.2536e+005
4656	7.7345e+005
4657	2.798e+006
4657	1.9575e+006
4658	3.1819e+006
4658	2.9466e+006
4659	3.2724e+006
4659	3.3943e+006
4660	4.0046e+006
4660	4.7315e+006
4661	9.3044e+005
4661	7.1833e+005
4662	2.8575e+006
4662	2.5977e+006
4663	2.0553e+006
4663	2.2296e+006
4664	3.9739e+006
4664	5.6333e+006
4665	5.0993e+006
4665	5.0775e+006
4666	4.4425e+006
4666	3.8119e+006
4667	7.9961e+005
4667	7.4702e+005
4668	1.3027e+006
4668	1.1909e+006
4669	1.0984e+006
4669	1.9609e+006
4670	1.4069e+006
4670	1.8956e+006
4671	3.66e+006
4671	3.9194e+006
4672	2.3135e+006
4672	2.1577e+006
4673	2.5263e+006
4673	1.3798e+006
4674	9.9385e+005
4674	9.5307e+005
4675	1.9048e+006
4675	1.3508e+006
4676	8.9733e+005
4676	1.0781e+006
4677	1.0078e+006
4677	1.3897e+006
4678	1.4644e+006
4678	9.1294e+005
4679	1.4393e+006
4679	1.2634e+006
4680	1.0856e+006
4680	9.7008e+005
4681	2.8793e+006
4681	4.214e+006
4682	3.5665e+006
4682	7.3434e+006
4683	2.2832e+006
4683	2.7912e+006
4684	4.2301e+006
4684	5.2027e+006
4685	3.0199e+006
4685	4.3028e+006
4686	5.3681e+006
4686	6.1148e+006
4687	4.6154e+006
4687	4.5359e+006
4688	1.4371e+006
4688	2.42e+006
4689	5.5107e+006
4689	4.0625e+006
4690	4.85e+006
4690	2.5177e+006
4691	3.4095e+006
4691	5.4189e+006
4692	4.6875e+006
4692	4.4249e+006
4693	3.8855e+006
4693	3.5555e+006
4694	4.7913e+006
4694	4.8954e+006
4695	6.0011e+006
4695	7.3695e+006
4696	4.32e+006
4696	4.2125e+006
4697	5.3964e+006
4697	4.3187e+006
4698	4.3828e+006
4698	4.6697e+006
4699	5.9281e+006
4699	5.8833e+006
4700	3.3217e+006
4700	3.2552e+006
4701	5.2431e+006
4701	2.9514e+006
4702	4.2544e+006
4702	3.7547e+006
4703	3.9375e+006
4703	3.7501e+006
4704	6.4802e+006
4704	6.0355e+006
4705	3.4367e+006
4705	3.75e+006
4706	3.0023e+006
4706	4.7389e+006
4707	2.7818e+006
4707	4.4483e+006
4708	1.9935e+006
4708	4.0442e+006
4709	3.517e+006
4709	3.8722e+006
4710	4.0106e+006
4710	4.4872e+006
4711	3.324e+006
4711	3.9736e+006
4712	3.2734e+006
4712	4.0456e+006
4713	5.7998e+006
4713	5.2433e+006
4714	4.5271e+006
4714	3.852e+006
4715	6.2811e+006
4715	6.0887e+006
4716	4.4681e+006
4716	3.6413e+006
4717	1.459e+006
4717	3.5023e+006
4718	1.7591e+006
4718	4.0916e+006
4719	2.3411e+006
4719	4.0084e+006
4720	2.1067e+006
4720	3.3758e+006
4721	2.1246e+006
4721	2.5766e+006
4722	1.9485e+006
4722	1.0699e+006
4723	2.6629e+006
4723	2.5019e+006
4724	2.0174e+006
4724	2.2435e+006
4725	3.4473e+006
4725	3.2322e+006
4726	1.4146e+006
4726	8.97e+005
4727	2.0437e+006
4727	1.2024e+006
4728	1.3777e+006
4728	1.0803e+006
4729	2.5343e+006
4729	2.0423e+006
4730	3.4144e+006
4730	3.5186e+006
4731	3.3211e+006
4731	2.9059e+006
4732	2.3511e+006
4732	2.3334e+006
4733	3.1371e+006
4733	1.4498e+006
4734	2.8433e+006
4734	1.5537e+006
4735	4.8328e+006
4735	3.956e+006
4736	4.5027e+006
4736	4.8138e+006
4737	6.5788e+006
4737	5.0505e+006
4738	1.1087e+006
4738	1.2647e+006
4739	2.3208e+006
4739	2.3536e+006
4740	1.2536e+006
4740	9.7637e+005
4741	1.3861e+006
4741	1.1883e+006
4742	2.6774e+006
4742	2.6636e+006
4743	1.1308e+006
4743	1.2905e+006
4744	1.0361e+006
4744	1.1446e+006
4745	2.4942e+006
4745	3.0777e+006
4746	9.8031e+005
4746	1.4479e+006
4747	1.229e+006
4747	1.023e+006
4748	7.8412e+005
4748	1.7967e+006
4749	1.378e+006
4749	1.2019e+006
4750	1.2033e+006
4750	8.2634e+005
4751	2.1588e+006
4751	2.5072e+006
4752	1.2668e+006
4752	1.2841e+006
4753	8.2208e+005
4753	6.4799e+005
4754	1.4834e+006
4754	1.3638e+006
4755	1.1952e+006
4755	8.9213e+005
4756	1.5544e+006
4756	1.1791e+006
4757	1.6183e+006
4757	3.8296e+006
4758	2.7282e+006
4758	5.9796e+006
4759	2.7419e+006
4759	5.3808e+006
4760	3.3449e+006
4760	4.1801e+006
4761	1.4868e+006
4761	3.2881e+006
4762	2.9408e+006
4762	3.4203e+006
4763	3.0063e+006
4763	3.786e+006
4764	3.9282e+006
4764	3.9497e+006
4765	1.8717e+006
4765	3.5072e+006
4766	4.1112e+006
4766	3.3985e+006
4767	3.8034e+006
4767	3.8922e+006
4768	4.1859e+006
4768	3.3543e+006
4769	3.4702e+006
4769	4.4845e+006
4770	4.4465e+006
4770	4.652e+006
4771	2.805e+006
4771	3.1949e+006
4772	2.5757e+006
4772	1.4673e+006
4773	2.3018e+006
4773	3.3599e+006
4774	3.4234e+006
4774	2.4736e+006
4775	3.8879e+006
4775	3.8049e+006
4776	3.3636e+006
4776	5.5295e+006
4777	4.6637e+006
4777	3.2133e+006
4778	3.3153e+006
4778	5.9388e+006
4779	2.525e+006
4779	4.4641e+006
4780	2.1055e+006
4780	2.1821e+006
4781	2.4193e+006
4781	4.6072e+006
4782	3.0875e+006
4782	2.5641e+006
4783	4.9518e+006
4783	4.3542e+006
4784	4.5336e+006
4784	4.9182e+006
4785	2.8269e+006
4785	2.4386e+006
4786	4.6108e+006
4786	3.9163e+006
4787	5.535e+006
4787	5.0261e+006
4788	3.8038e+006
4788	3.8548e+006
4789	4.7511e+006
4789	3.6299e+006
4790	2.4185e+006
4790	3.9872e+006
4791	2.8845e+006
4791	5.2812e+006
4792	8.7293e+005
4792	2.6779e+006
4793	3.5125e+006
4793	4.6777e+006
4794	3.4458e+006
4794	4.5319e+006
4795	3.5172e+006
4795	1.7377e+006
4796	2.6842e+006
4796	3.0575e+006
4797	5.3539e+006
4797	3.095e+006
4798	2.6685e+006
4798	1.1232e+006
4799	2.4068e+006
4799	1.0623e+006
4800	3.2698e+006
4800	2.8468e+006
4801	2.5899e+006
4801	1.7104e+006
4802	5.4745e+006
4802	3.1284e+006
4803	3.9419e+006
4803	3.688e+006
4804	3.3862e+006
4804	3.3818e+006
4805	1.9906e+006
4805	2.9205e+006
4806	3.4432e+006
4806	3.1395e+006
4807	3.1333e+006
4807	2.6859e+006
4808	1.5464e+006
4808	2.0373e+006
4809	4.2515e+006
4809	3.1814e+006
4810	3.4253e+006
4810	2.6418e+006
4811	2.7996e+006
4811	3.0549e+006
4812	3.935e+006
4812	3.3777e+006
4813	5.923e+006
4813	6.5013e+006
4814	2.0117e+006
4814	2.7662e+006
4815	2.0693e+006
4815	2.5458e+006
4816	2.1305e+006
4816	2.2426e+006
4817	4.1787e+006
4817	2.6422e+006
4818	3.2384e+006
4818	4.1209e+006
4819	2.705e+006
4819	2.4631e+006
4820	3.0362e+006
4820	2.6318e+006
4821	5.7939e+006
4821	6.004e+006
4822	9.024e+005
4822	1.0722e+006
4823	7.2629e+005
4823	7.3711e+005
4824	2.4437e+006
4824	2.2403e+006
4825	1.8868e+006
4825	1.3317e+006
4826	2.7487e+006
4826	2.4327e+006
4827	4.2155e+006
4827	1.7365e+006
4828	2.0674e+006
4828	2.5612e+006
4829	1.2195e+006
4829	1.38e+006
4830	2.4646e+006
4830	2.6628e+006
4831	1.6855e+006
4831	2.0072e+006
4832	4.9868e+006
4832	2.1508e+006
4833	3.2061e+006
4833	3.3275e+006
4834	4.9287e+006
4834	2.1317e+006
4835	1.8463e+006
4835	2.7716e+006
4836	2.6229e+005
4836	5.7678e+005
4837	2.2415e+006
4837	2.2784e+006
4838	1.035e+006
4838	1.051e+006
4839	9.7368e+005
4839	1.021e+006
4840	9.1159e+005
4840	9.9363e+005
4841	1.77e+006
4841	1.865e+006
4842	9.5084e+005
4842	5.4185e+005
4843	1.5881e+006
4843	9.3936e+005
4844	1.043e+006
4844	1.3497e+006
4845	1.894e+006
4845	1.6799e+006
4846	9.6541e+005
4846	9.8298e+005
4847	1.019e+006
4847	1.103e+006
4848	2.1563e+006
4848	1.8716e+006
4849	1.5101e+006
4849	2.3983e+006
4850	1.1228e+006
4850	3.9812e+005
4851	2.2424e+006
4851	1.599e+006
4852	4.2342e+006
4852	3.7686e+006
4853	6.636e+006
4853	5.6825e+006
4854	4.1366e+006
4854	3.5343e+006
4855	2.3461e+006
4855	1.8372e+006
4856	1.0969e+006
4856	1.0694e+006
4857	0.
4857	0.
4858	1.2378e+006
4858	1.4754e+006
4859	2.1007e+006
4859	5.0201e+005
4860	2.7281e+006
4860	3.3626e+006
4861	2.1991e+006
4861	2.3743e+006
4862	7.0067e+005
4862	1.1891e+006
4863	1.8792e+006
4863	1.4871e+006
4864	1.2859e+006
4864	1.472e+006
4865	2.5486e+006
4865	2.2861e+006
4866	2.552e+006
4866	2.7091e+006
4867	2.8984e+006
4867	2.6945e+006
4868	2.326e+006
4868	2.8587e+006
4869	3.1421e+006
4869	3.342e+006
4870	2.2719e+006
4870	2.1742e+006
4871	84632
4871	4.5146e+005
4872	3.2939e+006
4872	2.4322e+006
4873	0.
4873	0.
4874	2.7018e+005
4874	3.596e+005
4875	9.1941e+005
4875	1.1362e+006
4876	2.2869e+006
4876	2.1026e+006
4877	1.2842e+006
4877	8.2654e+005
4878	3.7354e+006
4878	3.8367e+006
4879	1.4967e+006
4879	7.0562e+005
4880	7548.2
4880	7576.
4881	2.1306e+005
4881	2.8142e+005
4882	2.2533e+005
4882	2.2162e+005
4883	8.4013e+005
4883	5.2541e+005
4884	0.
4884	0.
4885	0.
4885	0.
4886	0.
4886	0.
4887	0.
4887	0.
4888	0.
4888	0.
4889	0.
4889	0.
4890	0.
4890	0.
4891	0.
4891	0.
4892	0.
4892	0.
4893	0.
4893	0.
4894	0.
4894	0.
4895	0.
4895	0.
4896	0.
4896	0.
4897	0.
4897	0.
4898	0.
4898	0.
4899	0.
4899	0.
4900	0.
4900	0.
4901	0.
4901	0.
4902	0.
4902	0.
4903	0.
4903	0.
4904	0.
4904	0.
4905	0.
4905	0.
4906	0.
4906	0.
4907	0.
4907	0.
4908	0.
4908	0.
4909	0.
4909	0.
4910	0.
4910	0.
4911	0.
4911	0.
4912	0.
4912	0.
4913	0.
4913	0.
4914	0.
4914	0.
4915	0.
4915	0.
4916	0.
4916	0.
4917	0.
4917	0.
4918	0.
4918	0.
4919	0.
4919	0.
4920	0.
4920	0.
4921	0.
4921	0.
4922	0.
4922	0.
4923	0.
4923	0.
4924	0.
4924	0.
4925	0.
4925	0.
4926	0.
4926	0.
4927	0.
4927	0.
4928	0.
4928	0.
4929	0.
4929	0.
4930	0.
4930	0.
4931	0.
4931	0.
4932	0.
4932	0.
4933	0.
4933	0.
4934	0.
4934	0.
4935	0.
4935	0.
4936	0.
4936	0.
4937	0.
4937	0.
4938	0.
4938	0.
4939	0.
4939	0.
4940	0.
4940	0.
4941	0.
4941	0.
4942	0.
4942	0.
4943	0.
4943	0.
4944	0.
4944	0.
4945	0.
4945	0.
4946	0.
4946	0.
4947	0.
4947	0.
4948	0.
4948	0.
4949	0.
4949	0.
4950	0.
4950	0.
4951	0.
4951	0.
4952	0.
4952	0.
4953	0.
4953	0.
4954	0.
4954	0.
4955	0.
4955	0.
4956	0.
4956	0.
4957	0.
4957	0.
4958	0.
4958	0.
4959	0.
4959	0.
4960	0.
4960	0.
4961	0.
4961	0.
4962	0.
4962	0.
4963	0.
4963	0.
4964	0.
4964	0.
4965	0.
4965	0.
4966	0.
4966	0.
4967	0.
4967	0.
4968	0.
4968	0.
4969	0.
4969	0.
4970	0.
4970	0.
4971	0.
4971	0.
4972	0.
4972	0.
4973	0.
4973	0.
4974	0.
4974	0.
4975	0.
4975	0.
4976	0.
4976	0.
4977	0.
4977	0.
4978	0.
4978	0.
4979	0.
4979	0.
4980	0.
4980	0.
4981	0.
4981	0.
4982	0.
4982	0.
4983	0.
4983	0.
4984	1.5155e+005
4984	1.4938e+005
4985	5.2922e+005
4985	4.1196e+005
4986	1.9696e+005
4986	1.761e+005
4987	5.9916e+005
4987	4.6179e+005
4988	9.0823e+005
4988	5.3827e+005
4989	1.0254e+006
4989	1.2382e+006
4990	1.3996e+006
4990	1.3464e+006
4991	1.7476e+006
4991	1.6665e+006
4992	1.835e+006
4992	2.1958e+006
4993	1.8632e+006
4993	1.4107e+006
4994	1.2643e+006
4994	8.6156e+005
4995	2.3403e+006
4995	1.4927e+006
4996	1.6822e+006
4996	1.282e+006
4997	2.3e+006
4997	1.3948e+006
4998	2.523e+006
4998	1.6035e+006
4999	1.9329e+006
4999	2.3473e+006
5000	3.2015e+006
5000	3.6332e+006
5001	3.4708e+005
5001	1.0501e+006
5002	9.084e+005
5002	1.201e+006
5003	4.3902e+005
5003	7.8648e+005
5004	5.8945e+005
5004	1.0266e+006
5005	1.1175e+006
5005	9.2426e+005
5006	1.6317e+006
5006	1.3646e+006
5007	1.005e+006
5007	1.0034e+006
5008	1.2088e+006
5008	1.0005e+006
5009	7.3415e+005
5009	6.7177e+005
5010	1.5567e+006
5010	1.5727e+006
5011	1.5156e+006
5011	1.2727e+006
5012	1.0994e+006
5012	6.4982e+005
5013	1.9112e+006
5013	2.0705e+006
5014	1.5637e+006
5014	8.3417e+005
5015	8.1793e+005
5015	9.5601e+005
5016	1.0433e+006
5016	7.7582e+005
5017	1.1671e+006
5017	6.4251e+005
5018	1.5963e+006
5018	1.5629e+006
5019	1.8996e+006
5019	2.2212e+006
5020	1.5427e+006
5020	1.2693e+006
5021	2.5481e+006
5021	2.0418e+006
5022	2.3289e+006
5022	2.0184e+006
5023	1.479e+006
5023	9.4373e+005
5024	7.0738e+005
5024	6.0311e+005
5025	1.4172e+006
5025	1.2899e+006
5026	2.1743e+006
5026	7.6492e+005
5027	8.3337e+005
5027	1.3077e+006
5028	1.1078e+006
5028	1.4681e+006
5029	1.7201e+006
5029	1.7479e+006
5030	1.0074e+006
5030	9.5733e+005
5031	1.3429e+006
5031	9.909e+005
5032	1.0134e+006
5032	1.4501e+006
5033	1.3756e+006
5033	1.6609e+006
5034	5.2104e+005
5034	1.1001e+006
5035	1.2301e+006
5035	1.1928e+006
5036	1.4135e+006
5036	5.2878e+005
5037	2.2955e+006
5037	9.9737e+005
5038	3.1932e+005
5038	1.8066e+006
5039	6.2302e+005
5039	1.5661e+006
5040	2.4359e+006
5040	2.5986e+006
5041	2.4503e+006
5041	2.3008e+006
5042	1.4469e+006
5042	1.3104e+006
5043	1.9418e+006
5043	2.1414e+006
5044	2.1987e+006
5044	1.9096e+006
5045	1.8538e+006
5045	3.7273e+006
5046	2.9642e+006
5046	3.1985e+006
5047	3.9455e+006
5047	4.0604e+006
5048	1.9967e+006
5048	1.8756e+006
5049	2.9683e+006
5049	2.1533e+006
5050	3.468e+006
5050	2.7853e+006
5051	4.3164e+006
5051	4.5599e+006
5052	2.849e+006
5052	2.598e+006
5053	1.5945e+006
5053	4.9842e+006
5054	1.7063e+006
5054	1.4232e+006
5055	3.278e+006
5055	3.4073e+006
5056	2.6284e+006
5056	1.9483e+006
5057	4.1989e+006
5057	1.5409e+006
5058	2.285e+006
5058	1.7476e+006
5059	3.3237e+006
5059	2.632e+006
5060	4.3207e+006
5060	4.0471e+006
5061	2.4518e+006
5061	1.6952e+006
5062	5.0417e+006
5062	4.9505e+006
5063	4.9526e+006
5063	4.7032e+006
5064	4.2213e+006
5064	4.6117e+006
5065	1.7859e+006
5065	2.1784e+006
5066	3.7119e+006
5066	4.0325e+006
5067	3.4468e+006
5067	2.6862e+006
5068	3.7594e+006
5068	3.1181e+006
5069	2.4339e+006
5069	1.5434e+006
5070	7.2461e+006
5070	4.656e+006
5071	3.3208e+006
5071	4.2188e+006
5072	2.4252e+006
5072	1.9617e+006
5073	6.6969e+006
5073	1.0177e+007
5074	3.2412e+006
5074	3.8951e+006
5075	6.3171e+006
5075	5.5526e+006
5076	7.7911e+006
5076	9.7782e+006
5077	3.989e+006
5077	5.0348e+006
5078	3.844e+006
5078	5.4115e+006
5079	2.15e+006
5079	3.5132e+006
5080	2.5926e+006
5080	2.4438e+006
5081	1.1329e+006
5081	1.372e+006
5082	1.9702e+006
5082	2.354e+006
5083	6.0227e+006
5083	5.8046e+006
5084	1.9954e+006
5084	1.9843e+006
5085	1.7672e+006
5085	2.2094e+006
5086	1.3628e+006
5086	1.2197e+006
5087	7.2628e+005
5087	1.6993e+006
5088	1.5774e+006
5088	1.3503e+006
5089	1.0663e+006
5089	1.0726e+006
5090	1.7103e+006
5090	1.5683e+006
5091	1.3724e+006
5091	1.9777e+006
5092	2.658e+006
5092	2.2388e+006
5093	2.605e+006
5093	2.4709e+006
5094	1.9304e+006
5094	2.3503e+006
5095	1.5077e+006
5095	9.57e+005
5096	5.125e+006
5096	2.3045e+006
5097	3.4996e+006
5097	2.7081e+006
5098	2.1971e+006
5098	3.8061e+006
5099	3.9223e+006
5099	3.1157e+006
5100	2.6736e+006
5100	3.6572e+006
5101	1.8304e+006
5101	2.5548e+006
5102	3.5756e+006
5102	3.2727e+006
5103	2.5514e+006
5103	2.5707e+006
5104	4.6551e+006
5104	4.2962e+006
5105	6.1462e+006
5105	5.8029e+006
5106	4.4818e+006
5106	3.926e+006
5107	5.7029e+006
5107	5.0116e+006
5108	2.1154e+006
5108	2.2267e+006
5109	3.3434e+006
5109	4.3012e+006
5110	4.2364e+006
5110	4.5192e+006
5111	2.3913e+006
5111	3.9119e+006
5112	5.0116e+006
5112	2.2591e+006
5113	3.6687e+006
5113	3.0924e+006
5114	3.7761e+006
5114	4.0215e+006
5115	3.3909e+006
5115	3.0861e+006
5116	4.7409e+006
5116	4.0546e+006
5117	3.1188e+006
5117	4.3643e+006
5118	3.859e+006
5118	3.5656e+006
5119	1.8542e+006
5119	2.2651e+006
5120	4.5227e+006
5120	2.1686e+006
5121	3.6711e+006
5121	5.7852e+006
5122	2.4414e+006
5122	4.3914e+006
5123	3.7607e+006
5123	4.8196e+006
5124	1.4636e+006
5124	6.6107e+005
5125	2.462e+006
5125	2.4325e+006
5126	3.9534e+006
5126	3.1987e+006
5127	4.4387e+006
5127	6.7607e+006
5128	3.7496e+006
5128	2.8292e+006
5129	4.8377e+006
5129	4.9822e+006
5130	4.8271e+006
5130	3.2654e+006
5131	3.4221e+006
5131	3.5496e+006
5132	5.1262e+006
5132	4.7067e+006
5133	1.735e+006
5133	2.2569e+006
5134	1.5307e+006
5134	1.1909e+006
5135	1.3154e+006
5135	8.8891e+005
5136	1.8131e+006
5136	1.9687e+006
5137	2.5899e+006
5137	4.4997e+006
5138	1.3158e+006
5138	1.2992e+006
5139	3.7408e+006
5139	3.1389e+006
5140	1.1846e+006
5140	2.0966e+006
5141	1.0491e+006
5141	1.4402e+006
5142	6.0097e+006
5142	5.7142e+006
5143	3.488e+006
5143	3.324e+006
5144	4.1673e+006
5144	4.474e+006
5145	4.9154e+006
5145	4.1286e+006
5146	1.8716e+006
5146	2.3992e+006
5147	2.3792e+006
5147	2.8762e+006
5148	2.2043e+006
5148	2.9897e+006
5149	5.4931e+006
5149	5.2201e+006
5150	5.3871e+006
5150	5.8338e+006
5151	3.3675e+006
5151	2.1528e+006
5152	5.7884e+006
5152	2.5075e+006
5153	4.4063e+006
5153	3.169e+006
5154	4.5901e+006
5154	4.7559e+006
5155	3.3146e+006
5155	3.1023e+006
5156	5.6484e+006
5156	5.5498e+006
5157	4.9715e+006
5157	5.0672e+006
5158	2.6046e+006
5158	3.3696e+006
5159	6.0005e+006
5159	6.4103e+006
5160	5.6594e+006
5160	6.6232e+006
5161	5.2798e+006
5161	3.7743e+006
5162	6.661e+006
5162	7.3774e+006
5163	3.0173e+006
5163	2.5409e+006
5164	5.5379e+006
5164	3.0312e+006
5165	1.9406e+006
5165	1.4913e+006
5166	3.498e+006
5166	2.4038e+006
5167	2.928e+006
5167	3.2466e+006
5168	4.4134e+006
5168	4.7599e+006
5169	3.1408e+006
5169	3.3009e+006
5170	1.6491e+006
5170	2.4092e+006
5171	2.49e+006
5171	3.9499e+006
5172	3.9781e+006
5172	3.4688e+006
5173	2.5879e+006
5173	2.7195e+006
5174	4.2381e+006
5174	4.6097e+006
5175	3.1935e+006
5175	3.8091e+006
5176	2.3876e+006
5176	4.7854e+006
5177	3.07e+006
5177	4.0766e+006
5178	3.4428e+006
5178	2.8979e+006
5179	3.7085e+006
5179	4.7902e+006
5180	1.794e+006
5180	1.7329e+006
5181	3.1467e+006
5181	4.8297e+006
5182	3.3064e+006
5182	3.238e+006
5183	2.8496e+006
5183	3.1905e+006
5184	4.4581e+006
5184	3.435e+006
5185	4.5201e+006
5185	4.6482e+006
5186	2.2283e+006
5186	2.8848e+006
5187	4.2309e+006
5187	3.8303e+006
5188	4.6117e+006
5188	3.8431e+006
5189	2.1405e+006
5189	2.0675e+006
5190	2.0872e+006
5190	2.7673e+006
5191	5.1037e+006
5191	3.7897e+006
5192	3.8922e+006
5192	2.8974e+006
5193	2.8731e+006
5193	3.1981e+006
5194	4.3888e+006
5194	4.7887e+006
5195	3.14e+006
5195	2.9111e+006
5196	6.2492e+006
5196	5.7965e+006
5197	3.6563e+006
5197	3.6468e+006
5198	2.2686e+006
5198	2.4858e+006
5199	2.6885e+006
5199	4.2693e+006
5200	3.557e+006
5200	3.4405e+006
5201	2.7323e+006
5201	2.5952e+006
5202	4.0907e+005
5202	5.2253e+005
5203	3.7067e+006
5203	3.2451e+006
5204	5.4931e+006
5204	4.9167e+006
5205	5.6639e+006
5205	3.7304e+006
5206	1.4101e+006
5206	2.6255e+006
5207	2.6911e+006
5207	3.5112e+006
5208	2.6443e+006
5208	2.8879e+006
5209	2.301e+006
5209	3.9151e+006
5210	1.8124e+006
5210	1.6622e+006
5211	8.4935e+005
5211	1.4097e+006
5212	2.5339e+006
5212	2.6858e+006
5213	1.2204e+006
5213	1.9919e+006
5214	4.3391e+006
5214	3.8488e+006
5215	1.4387e+006
5215	7.2103e+005
5216	2.8302e+006
5216	2.718e+006
5217	6.3239e+006
5217	7.0205e+006
5218	5.3942e+006
5218	4.2691e+006
5219	2.7832e+006
5219	3.337e+006
5220	5.3568e+006
5220	3.3632e+006
5221	3.6288e+006
5221	3.0359e+006
5222	2.7085e+006
5222	2.8719e+006
5223	2.0163e+006
5223	2.6717e+006
5224	5.4122e+006
5224	4.6369e+006
5225	3.6816e+006
5225	2.9909e+006
5226	4.7653e+006
5226	4.7532e+006
5227	6.4295e+006
5227	6.2886e+006
5228	3.4791e+006
5228	3.0082e+006
5229	6.4439e+006
5229	6.5998e+006
5230	5.265e+006
5230	6.0456e+006
5231	1.7027e+006
5231	1.866e+006
5232	2.5049e+006
5232	2.1513e+006
5233	5.2706e+006
5233	4.2433e+006
5234	3.614e+006
5234	4.1656e+006
5235	4.1299e+006
5235	3.4077e+006
5236	3.8854e+006
5236	4.0828e+006
5237	3.3232e+006
5237	3.1298e+006
5238	1.9334e+006
5238	1.9937e+006
5239	5.3856e+006
5239	2.7897e+006
5240	2.4787e+006
5240	1.7039e+006
5241	5.005e+006
5241	2.8855e+006
5242	2.6353e+006
5242	4.9526e+006
5243	1.1612e+006
5243	2.836e+006
5244	2.5034e+006
5244	3.3015e+006
5245	1.7324e+006
5245	4.8886e+006
5246	2.8019e+006
5246	3.3319e+006
5247	4.7754e+006
5247	5.2396e+006
5248	2.242e+006
5248	1.8166e+006
5249	3.7271e+006
5249	4.1549e+006
5250	1.8794e+006
5250	2.157e+006
5251	3.9234e+006
5251	4.6768e+006
5252	3.6283e+006
5252	4.7268e+006
5253	3.3466e+006
5253	3.653e+006
5254	7.2571e+006
5254	4.6096e+006
5255	3.659e+006
5255	2.4636e+006
5256	5.1742e+006
5256	5.3238e+006
5257	3.9073e+006
5257	3.8026e+006
5258	4.8431e+006
5258	4.2255e+006
5259	4.1674e+006
5259	5.4244e+006
5260	3.3156e+006
5260	2.7463e+006
5261	9.1907e+005
5261	1.2112e+006
5262	3.258e+006
5262	2.8905e+006
5263	3.1366e+006
5263	3.718e+006
5264	1.3794e+006
5264	1.4612e+006
5265	4.5464e+006
5265	4.0796e+006
5266	4.3075e+006
5266	4.9351e+006
5267	9.5342e+006
5267	6.3406e+006
5268	4.3347e+006
5268	4.0861e+006
5269	5.4147e+006
5269	4.8232e+006
5270	4.8288e+006
5270	4.3957e+006
5271	1.0607e+006
5271	2.4569e+006
5272	2.9502e+006
5272	1.7832e+006
5273	2.6211e+006
5273	2.6585e+006
5274	6.2543e+006
5274	6.8362e+006
5275	2.3089e+006
5275	2.2478e+006
5276	3.993e+006
5276	3.6492e+006
5277	4.1401e+006
5277	3.4979e+006
5278	4.8498e+006
5278	5.7969e+006
5279	1.4345e+006
5279	1.3611e+006
5280	3.3392e+006
5280	3.4984e+006
5281	1.8828e+006
5281	2.2175e+006
5282	1.341e+006
5282	1.182e+006
5283	5.1499e+006
5283	4.8153e+006
5284	5.4785e+006
5284	4.747e+006
5285	3.6553e+006
5285	4.5184e+006
5286	5.2513e+006
5286	3.9783e+006
5287	3.7882e+006
5287	3.1718e+006
5288	5.7652e+006
5288	7.2956e+006
5289	2.2969e+006
5289	2.9222e+006
5290	1.9242e+006
5290	1.527e+006
5291	2.1756e+006
5291	5.5209e+006
5292	3.8001e+006
5292	2.9026e+006
5293	6.0464e+006
5293	5.0806e+006
5294	5.4597e+006
5294	3.9485e+006
5295	8.4478e+006
5295	9.5704e+006
5296	3.851e+006
5296	3.8369e+006
5297	3.6109e+006
5297	2.5982e+006
5298	4.957e+006
5298	3.2017e+006
5299	4.5224e+006
5299	3.1792e+006
5300	4.3054e+006
5300	3.2279e+006
5301	3.0524e+006
5301	1.9875e+006
5302	4.548e+006
5302	3.507e+006
5303	3.1298e+006
5303	3.9125e+006
5304	1.9755e+006
5304	9.7112e+005
5305	1.9939e+006
5305	2.7803e+006
5306	1.8153e+006
5306	2.0791e+006
5307	3.e+006
5307	3.2508e+006
5308	2.4633e+006
5308	3.5889e+006
5309	6.0428e+006
5309	6.1028e+006
5310	1.8663e+006
5310	2.3255e+006
5311	1.1113e+006
5311	1.048e+006
5312	5.2738e+005
5312	7.651e+005
5313	9.1657e+005
5313	6.1276e+005
5314	1.7455e+006
5314	1.4322e+006
5315	3.036e+006
5315	2.8758e+006
5316	1.5744e+006
5316	1.5247e+006
5317	1.1104e+006
5317	2.0431e+006
5318	7.9153e+005
5318	8.4774e+005
5319	2.0479e+006
5319	2.2282e+006
5320	9.184e+005
5320	2.0289e+006
5321	1.5956e+006
5321	3.5469e+006
5322	3.3309e+006
5322	5.297e+006
5323	3.7763e+006
5323	5.6899e+006
5324	9.6679e+006
5324	7.3712e+006
5325	6.5348e+006
5325	5.8951e+006
5326	1.9555e+006
5326	1.2347e+006
5327	0.
5327	0.
5328	0.
5328	0.
5329	1.4148e+006
5329	1.2871e+006
5330	2.2725e+006
5330	2.3265e+006
5331	1.5107e+006
5331	2.0346e+006
5332	7.5773e+005
5332	1.5965e+006
5333	0.
5333	0.
5334	0.
5334	0.
5335	9.9797e+005
5335	1.3029e+006
5336	5.8206e+005
5336	8.8854e+005
5337	2.3824e+006
5337	1.6267e+006
5338	0.
5338	0.
5339	0.
5339	0.
5340	1.0174e+006
5340	7.0102e+005
5341	9.1509e+005
5341	7.1251e+005
5342	0.
5342	0.
5343	0.
5343	0.
5344	1.528e+006
5344	1.3302e+006
5345	0.
5345	0.
5346	0.
5346	0.
5347	0.
5347	0.
5348	0.
5348	0.
5349	0.
5349	0.
5350	0.
5350	0.
5351	0.
5351	0.
5352	0.
5352	0.
5353	0.
5353	0.
5354	0.
5354	0.
5355	0.
5355	0.
5356	0.
5356	0.
5357	0.
5357	0.
5358	0.
5358	0.
5359	0.
5359	0.
5360	0.
5360	0.
5361	0.
5361	0.
5362	0.
5362	0.
5363	0.
5363	0.
5364	0.
5364	0.
5365	0.
5365	0.
5366	0.
5366	0.
5367	0.
5367	0.
5368	0.
5368	0.
5369	0.
5369	0.
5370	0.
5370	0.
5371	0.
5371	0.
5372	0.
5372	0.
5373	0.
5373	0.
5374	0.
5374	0.
5375	0.
5375	0.
5376	0.
5376	0.
5377	0.
5377	0.
5378	0.
5378	0.
5379	0.
5379	0.
5380	0.
5380	0.
5381	0.
5381	0.
5382	0.
5382	0.
5383	0.
5383	0.
5384	0.
5384	0.
5385	0.
5385	0.
5386	0.
5386	0.
5387	0.
5387	0.
5388	0.
5388	0.
5389	0.
5389	0.
5390	0.
5390	0.
5391	0.
5391	0.
5392	0.
5392	0.
5393	0.
5393	0.
5394	0.
5394	0.
5395	0.
5395	0.
5396	0.
5396	0.
5397	0.
5397	0.
5398	0.
5398	0.
5399	0.
5399	0.
5400	0.
5400	0.
5401	0.
5401	0.
5402	0.
5402	0.
5403	0.
5403	0.
5404	0.
5404	0.
5405	0.
5405	0.
5406	0.
5406	0.
5407	0.
5407	0.
5408	0.
5408	0.
5409	0.
5409	0.
5410	0.
5410	0.
5411	0.
5411	0.
5412	0.
5412	0.
5413	0.
5413	0.
5414	0.
5414	0.
5415	0.
5415	0.
5416	0.
5416	0.
5417	0.
5417	0.
5418	1.126e+005
5418	47083
5419	1.6588e+006
5419	1.127e+006
5420	7.3052e+005
5420	4.021e+005
5421	8.439e+005
5421	1.7717e+006
5422	4.8581e+005
5422	9.6484e+005
5423	5.8334e+005
5423	1.4022e+006
5424	6.8223e+005
5424	1.0581e+006
5425	1.6963e+006
5425	5.1036e+005
5426	1.6607e+006
5426	8.833e+005
5427	1.3458e+006
5427	1.2987e+006
5428	1.8359e+006
5428	8.2248e+005
5429	8.908e+005
5429	1.8039e+006
5430	1.073e+006
5430	1.2177e+006
5431	1.1686e+006
5431	1.4764e+006
5432	3.9824e+005
5432	8.9673e+005
5433	1.5429e+006
5433	7.1469e+005
5434	7.1764e+005
5434	7.9188e+005
5435	1.1957e+006
5435	8.9569e+005
5436	1.5035e+006
5436	1.6767e+006
5437	2.0511e+006
5437	6.7532e+005
5438	1.5559e+006
5438	1.2954e+006
5439	1.5768e+006
5439	6.8981e+005
5440	1.4363e+006
5440	1.0881e+006
5441	8.3761e+005
5441	4.5065e+005
5442	1.6847e+006
5442	1.1235e+006
5443	1.5526e+006
5443	8.7261e+005
5444	1.5082e+006
5444	1.5846e+006
5445	7.1622e+005
5445	6.4952e+005
5446	1.5599e+006
5446	1.4507e+006
5447	1.7505e+006
5447	1.0866e+006
5448	1.2077e+006
5448	1.1268e+006
5449	1.4288e+006
5449	6.6298e+005
5450	1.3662e+006
5450	1.2571e+006
5451	1.9713e+006
5451	1.4087e+006
5452	1.4348e+006
5452	1.0068e+006
5453	1.2711e+006
5453	1.141e+006
5454	1.6823e+006
5454	1.532e+006
5455	1.7958e+006
5455	1.5047e+006
5456	1.376e+006
5456	1.3448e+006
5457	8.7881e+005
5457	9.9357e+005
5458	1.903e+006
5458	1.2651e+006
5459	1.2665e+006
5459	8.7041e+005
5460	1.8643e+006
5460	1.2241e+006
5461	2.2973e+006
5461	2.3251e+006
5462	8.5604e+005
5462	4.8519e+005
5463	2.565e+006
5463	2.6111e+006
5464	2.0765e+006
5464	1.6291e+006
5465	3.8891e+006
5465	1.968e+006
5466	5.0848e+006
5466	9.8163e+005
5467	2.139e+006
5467	1.7903e+006
5468	1.7183e+006
5468	1.7509e+006
5469	1.3734e+006
5469	9.0418e+005
5470	7.7065e+005
5470	2.425e+006
5471	2.381e+006
5471	2.1129e+006
5472	4.6841e+006
5472	2.8897e+006
5473	2.3692e+006
5473	1.2931e+006
5474	3.0744e+006
5474	1.778e+006
5475	3.0752e+006
5475	2.9007e+006
5476	2.3338e+006
5476	2.6624e+006
5477	1.8628e+006
5477	3.0766e+006
5478	1.9856e+006
5478	2.0453e+006
5479	3.6047e+006
5479	3.5824e+006
5480	1.7093e+006
5480	1.4428e+006
5481	2.1185e+006
5481	2.4133e+006
5482	2.2369e+006
5482	2.6916e+006
5483	2.9522e+006
5483	2.739e+006
5484	2.0218e+006
5484	2.0222e+006
5485	1.6545e+006
5485	1.1439e+006
5486	2.768e+006
5486	2.0326e+006
5487	2.5232e+006
5487	2.6726e+006
5488	1.7132e+006
5488	1.9281e+006
5489	8.8455e+005
5489	7.9817e+005
5490	1.4865e+006
5490	1.0585e+006
5491	8.6558e+005
5491	1.5085e+006
5492	3.8989e+006
5492	4.1357e+006
5493	2.1491e+006
5493	2.3055e+006
5494	3.2439e+006
5494	3.7003e+006
5495	4.0185e+006
5495	3.5493e+006
5496	3.0153e+006
5496	2.6717e+006
5497	3.2521e+006
5497	2.4097e+006
5498	3.1218e+006
5498	2.2978e+006
5499	2.5392e+006
5499	1.8942e+006
5500	2.4119e+006
5500	2.5467e+006
5501	4.1031e+006
5501	3.2562e+006
5502	2.57e+006
5502	1.9568e+006
5503	2.4567e+006
5503	4.9475e+006
5504	4.2216e+006
5504	6.0652e+006
5505	2.29e+006
5505	2.2025e+006
5506	2.8055e+006
5506	1.7699e+006
5507	9.1295e+005
5507	9.3942e+005
5508	2.0137e+006
5508	2.6759e+006
5509	2.1937e+006
5509	2.6755e+006
5510	2.2634e+006
5510	1.8708e+006
5511	4.0025e+006
5511	4.5523e+006
5512	3.5062e+006
5512	2.6877e+006
5513	2.1025e+006
5513	1.6607e+006
5514	3.8123e+006
5514	4.0779e+006
5515	2.3518e+006
5515	3.0569e+006
5516	2.6418e+006
5516	1.4883e+006
5517	5.3049e+006
5517	2.3377e+006
5518	6.3377e+006
5518	3.1304e+006
5519	2.4421e+006
5519	1.9125e+006
5520	1.593e+006
5520	1.4873e+006
5521	2.0151e+006
5521	1.761e+006
5522	2.7968e+006
5522	1.7949e+006
5523	1.6163e+006
5523	3.7153e+006
5524	1.4302e+006
5524	2.3779e+006
5525	3.7253e+006
5525	1.7989e+006
5526	3.0315e+006
5526	3.4491e+006
5527	1.4335e+006
5527	2.2412e+006
5528	2.4115e+006
5528	1.751e+006
5529	2.8489e+006
5529	2.7797e+006
5530	3.3906e+006
5530	2.8688e+006
5531	2.1503e+006
5531	1.7176e+006
5532	1.2534e+006
5532	1.7359e+006
5533	3.7161e+006
5533	1.3544e+006
5534	3.6653e+006
5534	3.4143e+006
5535	3.3853e+006
5535	2.8457e+006
5536	5.5322e+006
5536	6.6255e+006
5537	1.1251e+006
5537	1.1569e+006
5538	1.4447e+006
5538	1.5112e+006
5539	3.1879e+006
5539	1.8404e+006
5540	3.3693e+006
5540	2.9222e+006
5541	2.7894e+006
5541	1.888e+006
5542	2.7007e+006
5542	2.2835e+006
5543	4.3104e+006
5543	3.7907e+006
5544	3.2705e+006
5544	2.548e+006
5545	1.3073e+006
5545	1.7785e+006
5546	8.5035e+005
5546	1.4287e+006
5547	9.5263e+005
5547	1.2118e+006
5548	3.8368e+006
5548	4.3077e+006
5549	1.13e+006
5549	1.2605e+006
5550	3.9119e+006
5550	4.5528e+006
5551	1.6369e+006
5551	1.4442e+006
5552	3.6939e+006
5552	3.7719e+006
5553	1.2482e+006
5553	9.0501e+005
5554	2.4984e+006
5554	8.6097e+005
5555	1.0422e+006
5555	1.1301e+006
5556	2.0668e+006
5556	1.4622e+006
5557	2.6378e+006
5557	2.0819e+006
5558	3.3674e+006
5558	2.1642e+006
5559	3.611e+006
5559	2.616e+006
5560	2.2526e+006
5560	2.7341e+006
5561	1.8931e+006
5561	2.569e+006
5562	2.4049e+006
5562	2.6656e+006
5563	2.2619e+006
5563	1.873e+006
5564	3.1969e+006
5564	3.2454e+006
5565	2.2547e+006
5565	3.0411e+006
5566	1.4853e+006
5566	2.1132e+006
5567	2.1611e+006
5567	2.3967e+006
5568	2.9073e+006
5568	2.7597e+006
5569	3.1561e+006
5569	2.928e+006
5570	1.7575e+006
5570	1.8484e+006
5571	2.704e+006
5571	1.7964e+006
5572	2.9771e+006
5572	2.3233e+006
5573	9.788e+005
5573	4.9049e+005
5574	1.6983e+006
5574	1.9176e+006
5575	1.3682e+006
5575	1.1693e+006
5576	1.7232e+006
5576	2.7049e+006
5577	4.926e+006
5577	2.9941e+006
5578	3.919e+006
5578	4.297e+006
5579	1.8452e+006
5579	3.8658e+006
5580	2.0315e+006
5580	1.7413e+006
5581	2.3852e+006
5581	2.8642e+006
5582	1.4171e+006
5582	1.6413e+006
5583	1.815e+006
5583	2.4787e+006
5584	2.5864e+006
5584	1.914e+006
5585	2.6097e+006
5585	2.6559e+006
5586	1.0372e+006
5586	9.4134e+005
5587	1.4457e+006
5587	1.8585e+006
5588	2.3966e+006
5588	2.9085e+006
5589	2.1412e+006
5589	2.0547e+006
5590	2.2315e+006
5590	3.0273e+006
5591	2.2863e+006
5591	2.2781e+006
5592	2.9013e+006
5592	3.0395e+006
5593	1.6587e+006
5593	2.67e+006
5594	1.0254e+006
5594	7.61e+005
5595	3.1551e+006
5595	3.1218e+006
5596	1.3878e+006
5596	1.4242e+006
5597	2.0419e+006
5597	2.6623e+006
5598	3.986e+006
5598	3.6606e+006
5599	1.4025e+006
5599	1.0051e+006
5600	1.6332e+006
5600	1.3723e+006
5601	1.8845e+006
5601	2.5836e+006
5602	2.285e+006
5602	1.7915e+006
5603	1.7309e+006
5603	1.8292e+006
5604	2.1901e+006
5604	1.7247e+006
5605	1.3109e+006
5605	1.0947e+006
5606	2.4653e+006
5606	2.3516e+006
5607	1.1619e+006
5607	1.7399e+006
5608	2.0689e+006
5608	3.0308e+006
5609	1.5349e+006
5609	1.9148e+006
5610	2.76e+006
5610	3.8324e+006
5611	2.652e+006
5611	3.3014e+006
5612	1.6378e+006
5612	2.0273e+006
5613	3.9944e+006
5613	3.1177e+006
5614	4.1108e+006
5614	3.0911e+006
5615	2.0922e+006
5615	1.7215e+006
5616	2.4292e+006
5616	4.4309e+006
5617	1.7119e+006
5617	1.3599e+006
5618	2.6506e+006
5618	3.2768e+006
5619	3.3244e+006
5619	2.2976e+006
5620	2.9798e+006
5620	3.219e+006
5621	5.7871e+006
5621	1.2716e+006
5622	2.451e+006
5622	1.372e+006
5623	2.0091e+006
5623	2.6621e+006
5624	2.042e+006
5624	2.4964e+006
5625	3.9285e+006
5625	4.1804e+006
5626	1.1525e+006
5626	7.3103e+005
5627	1.362e+006
5627	1.5696e+006
5628	1.7575e+006
5628	2.2437e+006
5629	1.157e+006
5629	3.6464e+006
5630	1.5325e+006
5630	2.4747e+006
5631	1.7176e+006
5631	1.744e+006
5632	9.8664e+005
5632	2.2696e+006
5633	2.7761e+006
5633	2.8978e+006
5634	1.8761e+006
5634	2.3791e+006
5635	2.769e+006
5635	2.9654e+006
5636	1.9253e+006
5636	2.321e+006
5637	1.0599e+006
5637	1.2276e+006
5638	2.0549e+006
5638	2.6309e+006
5639	2.1207e+006
5639	2.1226e+006
5640	1.3001e+006
5640	5.0663e+005
5641	2.9876e+006
5641	2.5711e+006
5642	2.989e+006
5642	2.8442e+006
5643	1.6765e+006
5643	1.7861e+006
5644	1.0287e+006
5644	6.2746e+005
5645	2.1196e+006
5645	2.1946e+006
5646	2.6571e+006
5646	3.0652e+006
5647	1.9485e+006
5647	2.2714e+006
5648	1.1724e+006
5648	1.0997e+006
5649	3.2547e+006
5649	4.1374e+006
5650	1.1352e+006
5650	9.1424e+005
5651	1.2076e+006
5651	6.8144e+005
5652	1.2795e+006
5652	1.3301e+006
5653	3.7656e+006
5653	2.6949e+006
5654	1.4401e+006
5654	1.1349e+006
5655	2.5414e+006
5655	1.4071e+006
5656	3.4115e+006
5656	1.9919e+006
5657	3.2487e+006
5657	2.7981e+006
5658	3.0342e+006
5658	2.9142e+006
5659	1.0828e+006
5659	2.2318e+006
5660	3.5452e+006
5660	3.846e+006
5661	1.6219e+006
5661	1.7223e+006
5662	1.6848e+006
5662	1.5724e+006
5663	9.7782e+005
5663	1.6745e+006
5664	1.6441e+006
5664	8.9617e+005
5665	2.126e+006
5665	3.0643e+006
5666	2.336e+006
5666	2.2705e+006
5667	2.1193e+006
5667	2.1911e+006
5668	1.8786e+006
5668	2.2514e+006
5669	2.1354e+006
5669	2.4533e+006
5670	2.6935e+006
5670	2.7012e+006
5671	2.013e+006
5671	2.6513e+006
5672	1.7469e+006
5672	2.8402e+006
5673	1.3114e+006
5673	1.5986e+006
5674	2.2859e+006
5674	1.522e+006
5675	2.6003e+006
5675	2.2948e+006
5676	1.7878e+006
5676	1.6998e+006
5677	1.7836e+006
5677	2.4575e+006
5678	6.2586e+005
5678	7.446e+006
5679	1.4614e+006
5679	1.557e+006
5680	1.2743e+006
5680	1.3793e+006
5681	1.2918e+006
5681	1.6019e+006
5682	1.7195e+006
5682	2.9247e+006
5683	1.4245e+006
5683	1.8853e+006
5684	3.3147e+006
5684	4.6422e+006
5685	1.2228e+006
5685	1.8373e+006
5686	2.3533e+006
5686	2.4049e+006
5687	7.6008e+005
5687	5.8937e+005
5688	2.4971e+006
5688	8.0676e+005
5689	1.4429e+006
5689	3.5708e+005
5690	9.8233e+005
5690	9.9484e+005
5691	1.305e+006
5691	2.2131e+006
5692	6.4447e+006
5692	3.1189e+006
5693	3.1616e+006
5693	1.8987e+006
5694	3.2186e+006
5694	4.1325e+006
5695	4.2148e+006
5695	3.024e+006
5696	2.5793e+006
5696	3.1166e+006
5697	4.2742e+006
5697	4.3913e+006
5698	2.2906e+006
5698	2.886e+006
5699	2.9558e+006
5699	2.6898e+006
5700	1.184e+006
5700	1.7923e+006
5701	1.8143e+006
5701	1.7365e+006
5702	1.995e+006
5702	1.6378e+006
5703	9.4552e+005
5703	1.1672e+006
5704	1.6239e+006
5704	2.0377e+006
5705	2.0456e+006
5705	1.8296e+006
5706	2.0234e+006
5706	1.5503e+006
5707	2.3238e+006
5707	2.7172e+006
5708	2.1249e+006
5708	2.0456e+006
5709	1.0789e+006
5709	2.9165e+006
5710	2.8144e+006
5710	1.3783e+006
5711	2.0753e+006
5711	2.1378e+006
5712	7.2561e+005
5712	9.0414e+005
5713	1.2259e+006
5713	1.5132e+006
5714	2.2891e+006
5714	1.837e+006
5715	1.2948e+006
5715	1.4324e+006
5716	2.3884e+006
5716	2.1586e+006
5717	4.9418e+005
5717	1.1698e+006
5718	8.5739e+005
5718	6.5094e+005
5719	8.5245e+005
5719	7.9591e+005
5720	1.4487e+006
5720	1.2818e+006
5721	1.5029e+006
5721	1.3947e+006
5722	1.4052e+006
5722	1.0942e+006
5723	1.787e+006
5723	2.6938e+006
5724	2.232e+006
5724	2.474e+006
5725	2.4705e+006
5725	2.5458e+006
5726	0.
5726	0.
5727	1.0164e+006
5727	6.5427e+005
5728	1.9859e+006
5728	1.4315e+006
5729	2.0229e+006
5729	1.8776e+006
5730	1.8226e+005
5730	6.5331e+005
5731	4.5267e+005
5731	1.2942e+006
5732	0.
5732	0.
5733	0.
5733	0.
5734	0.
5734	0.
5735	1.1997e+006
5735	1.4637e+006
5736	8.9367e+005
5736	1.3746e+006
5737	0.
5737	0.
5738	0.
5738	0.
5739	0.
5739	0.
5740	0.
5740	0.
5741	4.8378e+005
5741	1.3769e+005
5742	1.7547e+006
5742	4.9347e+005
5743	2.0147e+006
5743	5.0178e+005
5744	1.2852e+006
5744	1.083e+006
5745	0.
5745	0.
5746	0.
5746	0.
5747	0.
5747	0.
5748	0.
5748	0.
5749	6.812e+005
5749	6.4497e+005
5750	0.
5750	0.
5751	0.
5751	0.
5752	0.
5752	0.
5753	0.
5753	0.
5754	0.
5754	0.
5755	0.
5755	0.
5756	0.
5756	0.
5757	0.
5757	0.
5758	0.
5758	0.
5759	0.
5759	0.
5760	0.
5760	0.
5761	0.
5761	0.
5762	0.
5762	0.
5763	0.
5763	0.
5764	0.
5764	0.
5765	0.
5765	0.
5766	0.
5766	0.
5767	0.
5767	0.
5768	0.
5768	0.
5769	0.
5769	0.
5770	0.
5770	0.
5771	0.
5771	0.
5772	0.
5772	0.
5773	0.
5773	0.
5774	0.
5774	0.
5775	0.
5775	0.
5776	0.
5776	0.
5777	0.
5777	0.
5778	0.
5778	0.
5779	0.
5779	0.
5780	0.
5780	0.
5781	0.
5781	0.
5782	0.
5782	0.
5783	0.
5783	0.
5784	0.
5784	0.
5785	0.
5785	0.
5786	0.
5786	0.
5787	0.
5787	0.
5788	0.
5788	0.
5789	0.
5789	0.
5790	0.
5790	0.
5791	0.
5791	0.
5792	0.
5792	0.
5793	0.
5793	0.
5794	9.6307e+005
5794	1.2916e+006
5795	2.2987e+006
5795	2.9434e+006
5796	8.4745e+005
5796	1.134e+006
5797	1.8153e+006
5797	1.2048e+006
5798	9.0753e+005
5798	1.2503e+006
5799	1.6878e+006
5799	2.8468e+006
5800	1.2102e+006
5800	1.6449e+006
5801	2.4844e+006
5801	7.1978e+005
5802	1.809e+006
5802	8.9815e+005
5803	3.0419e+006
5803	2.2065e+006
5804	1.9537e+006
5804	8.426e+005
5805	2.0765e+006
5805	2.367e+006
5806	1.2426e+006
5806	1.0697e+006
5807	1.0523e+006
5807	1.5772e+006
5808	1.6189e+006
5808	1.275e+006
5809	1.7307e+006
5809	1.5832e+006
5810	1.4296e+006
5810	1.1822e+006
5811	9.9794e+005
5811	1.3165e+006
5812	1.8934e+006
5812	2.0308e+006
5813	1.0816e+006
5813	9.7788e+005
5814	1.9045e+006
5814	1.586e+006
5815	1.9166e+006
5815	1.9536e+006
5816	1.7911e+006
5816	1.1646e+006
5817	1.8837e+006
5817	1.7782e+006
5818	1.6091e+006
5818	1.6039e+006
5819	9.1778e+005
5819	1.6096e+006
5820	1.369e+006
5820	1.2535e+006
5821	2.2644e+006
5821	1.6251e+006
5822	1.6058e+006
5822	1.4183e+006
5823	1.2669e+006
5823	7.092e+005
5824	1.1393e+006
5824	1.2584e+006
5825	2.0739e+006
5825	1.8959e+006
5826	1.081e+006
5826	1.5268e+006
5827	1.3531e+006
5827	2.6275e+006
5828	1.8945e+006
5828	1.4577e+006
5829	1.9439e+006
5829	2.1377e+006
5830	1.0737e+006
5830	9.3629e+005
5831	1.1746e+006
5831	7.4006e+005
5832	1.1778e+006
5832	4.931e+005
5833	5.3449e+005
5833	3.3307e+005
5834	1.9875e+006
5834	1.6336e+006
5835	1.8368e+006
5835	2.3413e+006
5836	1.0901e+006
5836	3.984e+005
5837	1.4715e+006
5837	3.3409e+005
5838	6.0706e+005
5838	1.4944e+006
5839	7.1474e+005
5839	9.5221e+005
5840	1.379e+006
5840	6.7018e+005
5841	1.5635e+006
5841	1.5515e+006
5842	1.7021e+006
5842	1.2218e+006
5843	1.3459e+006
5843	1.8125e+006
5844	1.9488e+006
5844	1.2954e+006
5845	9.7082e+005
5845	9.9959e+005
5846	6.6731e+005
5846	9.7942e+005
5847	1.0298e+006
5847	1.3532e+006
5848	3.1327e+006
5848	3.1497e+006
5849	1.2834e+006
5849	1.2287e+006
5850	1.112e+006
5850	7.7052e+005
5851	9.7649e+005
5851	1.0718e+006
5852	1.2818e+006
5852	1.6442e+006
5853	1.2261e+006
5853	2.2887e+006
5854	3.2691e+006
5854	3.2558e+006
5855	2.2482e+006
5855	1.0463e+006
5856	3.6213e+006
5856	3.6186e+006
5857	2.4932e+006
5857	1.5533e+006
5858	9.4615e+005
5858	8.3757e+005
5859	7.0281e+005
5859	7.6235e+005
5860	1.8385e+006
5860	3.7717e+005
5861	5.9635e+005
5861	1.0783e+006
5862	8.539e+005
5862	1.6823e+006
5863	1.6867e+006
5863	1.7942e+006
5864	3.5719e+006
5864	3.4076e+006
5865	1.3277e+006
5865	1.107e+006
5866	2.5575e+006
5866	1.5775e+006
5867	3.8507e+006
5867	3.4379e+006
5868	2.3087e+006
5868	1.8718e+006
5869	5.9956e+005
5869	1.2367e+006
5870	1.3154e+006
5870	1.6565e+006
5871	1.0784e+006
5871	1.8736e+006
5872	1.3895e+006
5872	1.2924e+006
5873	3.3208e+006
5873	3.8323e+006
5874	2.512e+006
5874	1.7664e+006
5875	2.5635e+006
5875	2.2937e+006
5876	2.7953e+006
5876	1.7004e+006
5877	3.2323e+006
5877	2.8761e+006
5878	5.2491e+006
5878	5.6791e+006
5879	4.5308e+006
5879	3.8802e+006
5880	4.4132e+006
5880	4.6846e+006
5881	4.8892e+006
5881	3.421e+006
5882	5.1392e+006
5882	6.8452e+006
5883	2.4329e+006
5883	2.8742e+006
5884	3.9262e+006
5884	3.6374e+006
5885	2.5926e+006
5885	3.2389e+006
5886	4.4845e+006
5886	4.1708e+006
5887	4.4408e+006
5887	4.1446e+006
5888	5.1815e+006
5888	4.1274e+006
5889	4.2167e+006
5889	4.287e+006
5890	2.7445e+006
5890	4.1575e+006
5891	3.4857e+006
5891	3.8026e+006
5892	3.746e+006
5892	3.7501e+006
5893	4.6398e+006
5893	5.0079e+006
5894	4.0146e+006
5894	2.5268e+006
5895	3.809e+006
5895	4.8567e+006
5896	4.1892e+006
5896	3.9515e+006
5897	6.6678e+006
5897	5.0948e+006
5898	2.3209e+006
5898	2.7449e+006
5899	1.083e+006
5899	1.5099e+006
5900	7.2195e+005
5900	3.9904e+005
5901	8.2229e+005
5901	1.3154e+006
5902	2.569e+006
5902	2.1511e+006
5903	2.4531e+006
5903	3.1552e+006
5904	4.2243e+006
5904	3.9767e+006
5905	1.4109e+006
5905	1.403e+006
5906	2.4101e+006
5906	2.2133e+006
5907	4.9494e+006
5907	4.4042e+006
5908	1.9125e+006
5908	2.8188e+006
5909	7.5062e+005
5909	8.4621e+005
5910	1.7077e+006
5910	2.0649e+006
5911	2.3217e+006
5911	3.0454e+006
5912	3.2694e+005
5912	2.2079e+006
5913	5.9339e+005
5913	1.0182e+006
5914	1.358e+006
5914	1.7968e+006
5915	1.1082e+006
5915	1.4478e+006
5916	1.4988e+006
5916	5.3181e+005
5917	4.4343e+006
5917	3.955e+006
5918	1.743e+006
5918	1.0008e+006
5919	1.5645e+006
5919	1.9068e+006
5920	1.5115e+006
5920	2.1013e+006
5921	2.0913e+006
5921	2.2832e+006
5922	8.4796e+005
5922	6.1886e+005
5923	2.6475e+006
5923	3.3716e+006
5924	2.2299e+006
5924	1.9088e+006
5925	9.2363e+005
5925	1.1981e+006
5926	1.353e+006
5926	1.38e+006
5927	4.3957e+006
5927	3.6647e+006
5928	1.8945e+006
5928	2.4971e+006
5929	1.2729e+006
5929	1.5952e+006
5930	2.0183e+006
5930	6.631e+005
5931	3.5894e+006
5931	1.7788e+006
5932	1.9326e+006
5932	1.4967e+006
5933	3.682e+006
5933	4.9006e+006
5934	3.8876e+006
5934	2.854e+006
5935	4.0458e+006
5935	3.3787e+006
5936	5.4335e+006
5936	5.7934e+006
5937	4.2631e+006
5937	4.6218e+006
5938	1.4398e+006
5938	3.0766e+006
5939	2.2656e+006
5939	2.2561e+006
5940	3.9209e+006
5940	5.2793e+006
5941	3.9259e+006
5941	4.2766e+006
5942	3.6039e+006
5942	2.5825e+006
5943	3.747e+006
5943	3.6342e+006
5944	4.3238e+006
5944	4.648e+006
5945	3.1735e+006
5945	2.7071e+006
5946	3.3752e+006
5946	4.3433e+006
5947	3.2883e+006
5947	2.8081e+006
5948	4.1529e+006
5948	5.4697e+006
5949	2.1984e+006
5949	3.7592e+006
5950	3.6018e+006
5950	3.0633e+006
5951	3.3604e+006
5951	3.3378e+006
5952	4.1202e+006
5952	4.4691e+006
5953	4.4195e+006
5953	3.7027e+006
5954	2.2785e+006
5954	3.5e+006
5955	3.2296e+006
5955	3.1434e+006
5956	3.5928e+006
5956	2.3555e+006
5957	4.7793e+006
5957	2.923e+006
5958	3.7466e+006
5958	4.6395e+006
5959	3.622e+006
5959	4.3252e+006
5960	4.091e+006
5960	3.8771e+006
5961	2.7356e+006
5961	3.7654e+006
5962	4.6538e+006
5962	2.4613e+006
5963	3.8086e+006
5963	4.1772e+006
5964	2.5879e+006
5964	1.6036e+006
5965	1.1179e+006
5965	1.4822e+006
5966	3.0886e+006
5966	3.413e+006
5967	1.7052e+006
5967	9.9746e+005
5968	9.4391e+005
5968	1.741e+006
5969	1.1276e+006
5969	8.4873e+005
5970	4.4708e+005
5970	3.5672e+005
5971	6.348e+005
5971	3.2188e+005
5972	1.3642e+006
5972	9.9003e+005
5973	1.1976e+006
5973	1.3597e+006
5974	2.5245e+006
5974	3.095e+006
5975	1.1302e+006
5975	1.444e+006
5976	1.0188e+006
5976	9.4064e+005
5977	1.5165e+006
5977	1.6098e+006
5978	1.8708e+006
5978	1.2667e+006
5979	2.1184e+006
5979	1.709e+006
5980	1.2775e+006
5980	2.0876e+006
5981	3.4264e+006
5981	2.7471e+006
5982	1.7258e+006
5982	9.6472e+005
5983	1.1995e+006
5983	9.6377e+005
5984	1.53e+006
5984	2.1744e+006
5985	8.9295e+005
5985	9.091e+005
5986	1.8945e+006
5986	1.6453e+006
5987	1.438e+006
5987	9.1927e+005
5988	1.1066e+006
5988	8.6553e+005
5989	8.4339e+005
5989	8.0951e+005
5990	8.0426e+005
5990	1.2742e+006
5991	4.1898e+006
5991	4.1592e+006
5992	5.5569e+006
5992	3.9013e+006
5993	2.029e+006
5993	3.3297e+006
5994	2.6658e+006
5994	2.5803e+006
5995	3.2947e+006
5995	3.644e+006
5996	1.5353e+006
5996	2.6563e+006
5997	3.256e+006
5997	2.9372e+006
5998	2.8791e+006
5998	3.7814e+006
5999	2.7274e+006
5999	1.2922e+006
6000	3.8051e+006
6000	1.8281e+006
6001	4.6752e+006
6001	3.5735e+006
6002	2.1975e+006
6002	3.5058e+006
6003	4.0886e+006
6003	2.9684e+006
6004	4.2134e+006
6004	4.8147e+006
6005	2.7535e+006
6005	2.7189e+006
6006	4.7273e+006
6006	4.0631e+006
6007	4.2895e+006
6007	4.4865e+006
6008	3.5213e+006
6008	3.8173e+006
6009	4.0545e+006
6009	3.5713e+006
6010	3.8075e+006
6010	3.3678e+006
6011	4.6156e+006
6011	4.2682e+006
6012	5.9832e+006
6012	6.1524e+006
6013	4.7135e+006
6013	4.3057e+006
6014	2.8679e+006
6014	2.9749e+006
6015	3.569e+006
6015	4.9813e+006
6016	3.689e+006
6016	3.4757e+006
6017	3.7407e+006
6017	3.9798e+006
6018	3.146e+006
6018	3.1887e+006
6019	4.3759e+006
6019	4.0414e+006
6020	4.6968e+006
6020	5.0859e+006
6021	2.1514e+006
6021	3.1094e+006
6022	4.1951e+006
6022	3.2066e+006
6023	2.2851e+006
6023	3.0419e+006
6024	3.8024e+006
6024	4.7378e+006
6025	3.2557e+006
6025	3.2405e+006
6026	2.9126e+006
6026	3.0668e+006
6027	2.5622e+006
6027	2.7839e+006
6028	1.5015e+006
6028	1.4193e+006
6029	3.1679e+006
6029	2.9196e+006
6030	3.1867e+006
6030	3.5958e+006
6031	4.3222e+006
6031	4.0177e+006
6032	3.3581e+006
6032	2.7701e+006
6033	1.4963e+006
6033	3.2941e+006
6034	3.1391e+006
6034	2.4166e+006
6035	1.0946e+006
6035	1.2784e+006
6036	3.8278e+006
6036	2.3986e+006
6037	7.055e+005
6037	1.0605e+006
6038	1.0329e+006
6038	1.2826e+006
6039	1.365e+006
6039	7.6236e+005
6040	1.1006e+006
6040	1.305e+006
6041	2.5504e+006
6041	2.0069e+006
6042	8.6089e+005
6042	1.2148e+006
6043	6.1649e+005
6043	7.8116e+005
6044	3.534e+006
6044	3.1156e+006
6045	1.0376e+006
6045	6.0035e+005
6046	1.2082e+006
6046	7.0049e+005
6047	1.0063e+006
6047	1.7456e+006
6048	2.198e+006
6048	1.2167e+006
6049	2.8397e+006
6049	3.7393e+006
6050	1.8461e+006
6050	1.5068e+006
6051	1.1129e+006
6051	1.5093e+006
6052	1.4977e+006
6052	1.5449e+006
6053	9.328e+005
6053	1.4125e+006
6054	1.0595e+006
6054	1.3858e+006
6055	9.4174e+005
6055	1.191e+006
6056	5.5813e+005
6056	1.2343e+006
6057	3.6398e+006
6057	3.4783e+006
6058	3.6028e+006
6058	3.1514e+006
6059	2.3063e+006
6059	2.6685e+006
6060	2.3771e+006
6060	3.3949e+006
6061	3.285e+006
6061	4.0569e+006
6062	3.9823e+006
6062	2.3152e+006
6063	4.3706e+006
6063	3.9236e+006
6064	3.1328e+006
6064	2.8196e+006
6065	2.3931e+006
6065	2.1228e+006
6066	3.4162e+006
6066	2.9372e+006
6067	4.6727e+006
6067	3.3565e+006
6068	3.1494e+006
6068	4.402e+006
6069	2.8518e+006
6069	1.9279e+006
6070	3.1277e+006
6070	4.2394e+006
6071	1.5401e+006
6071	2.4712e+006
6072	2.7427e+006
6072	1.4261e+006
6073	2.3841e+006
6073	2.2626e+006
6074	2.5173e+006
6074	3.7357e+006
6075	1.239e+006
6075	3.0783e+006
6076	3.1541e+006
6076	2.682e+006
6077	2.7379e+006
6077	2.7672e+006
6078	3.3014e+006
6078	3.9628e+006
6079	3.2225e+006
6079	3.93e+006
6080	2.6416e+006
6080	3.9875e+006
6081	3.2417e+006
6081	3.5806e+006
6082	4.4985e+006
6082	4.3589e+006
6083	4.5563e+006
6083	4.1462e+006
6084	3.3147e+006
6084	3.9314e+006
6085	3.6334e+006
6085	4.2417e+006
6086	5.4363e+006
6086	4.5596e+006
6087	1.7854e+006
6087	2.9544e+006
6088	2.5463e+006
6088	2.4384e+006
6089	4.2261e+006
6089	2.1233e+006
6090	2.4708e+006
6090	2.8428e+006
6091	4.1337e+006
6091	5.5356e+006
6092	3.3228e+006
6092	3.6362e+006
6093	2.1962e+006
6093	3.1477e+006
6094	1.0843e+006
6094	3.2771e+006
6095	2.5901e+006
6095	2.89e+006
6096	4.67e+006
6096	3.3913e+006
6097	1.7648e+006
6097	2.6843e+006
6098	3.0693e+006
6098	2.9002e+006
6099	1.2047e+006
6099	1.2797e+006
6100	3.5258e+006
6100	3.573e+006
6101	8.3571e+005
6101	2.0696e+006
6102	3.7735e+006
6102	3.8307e+006
6103	1.6097e+006
6103	1.811e+006
6104	2.0713e+006
6104	1.0348e+006
6105	1.2985e+006
6105	2.051e+006
6106	1.5963e+006
6106	1.775e+006
6107	1.8254e+006
6107	1.2821e+006
6108	2.2268e+006
6108	1.8824e+006
6109	2.1694e+006
6109	2.5274e+006
6110	2.7088e+006
6110	3.8138e+006
6111	2.4949e+006
6111	2.4142e+006
6112	2.3159e+006
6112	1.0077e+006
6113	1.0091e+006
6113	7.1982e+005
6114	1.5857e+006
6114	7.9084e+005
6115	8.3766e+005
6115	1.0876e+006
6116	3.5456e+006
6116	2.2535e+006
6117	2.0192e+006
6117	2.0005e+006
6118	1.2412e+006
6118	1.8011e+006
6119	9.3246e+005
6119	7.0166e+005
6120	7.3506e+005
6120	6.0433e+005
6121	3.4392e+006
6121	4.7601e+006
6122	3.7205e+006
6122	4.7021e+006
6123	3.9693e+006
6123	4.3302e+006
6124	3.1001e+006
6124	2.4188e+006
6125	3.0923e+006
6125	2.403e+006
6126	1.5982e+006
6126	2.2687e+006
6127	3.441e+006
6127	3.0502e+006
6128	4.5868e+006
6128	4.4896e+006
6129	1.9865e+006
6129	4.0498e+006
6130	3.4157e+006
6130	1.7697e+006
6131	2.1488e+006
6131	2.1183e+006
6132	4.2904e+006
6132	4.5645e+006
6133	3.6793e+006
6133	3.0306e+006
6134	2.8514e+006
6134	2.3011e+006
6135	2.2941e+006
6135	2.6321e+006
6136	1.3192e+006
6136	2.2266e+006
6137	3.3881e+006
6137	3.843e+006
6138	2.674e+006
6138	2.6831e+006
6139	2.3721e+006
6139	2.6231e+006
6140	1.5821e+006
6140	9.7892e+005
6141	1.437e+006
6141	1.4369e+006
6142	2.5212e+006
6142	1.2243e+006
6143	2.7983e+006
6143	3.7113e+006
6144	2.6498e+006
6144	2.5111e+006
6145	2.5433e+006
6145	2.5489e+006
6146	1.8734e+006
6146	9.9173e+005
6147	0.
6147	0.
6148	1.6238e+006
6148	7.5246e+005
6149	3.5414e+006
6149	4.1247e+006
6150	1.3626e+006
6150	1.0761e+006
6151	1.0774e+006
6151	6.8774e+005
6152	1.8012e+006
6152	1.0812e+006
6153	0.
6153	0.
6154	0.
6154	0.
6155	1.0484e+006
6155	1.0858e+006
6156	1.849e+006
6156	1.7136e+006
6157	4.2055e+005
6157	1.1955e+006
6158	0.
6158	0.
6159	0.
6159	0.
6160	5.111e+005
6160	5.1677e+005
6161	2.1421e+006
6161	1.8109e+006
6162	2.4352e+005
6162	7.6458e+005
6163	9.5769e+005
6163	7.4031e+005
6164	2.4262e+006
6164	1.2776e+006
6165	6.1534e+005
6165	5.1758e+005
6166	0.
6166	0.
6167	0.
6167	0.
6168	0.
6168	0.
6169	0.
6169	0.
6170	0.
6170	0.
6171	0.
6171	0.
6172	2.1359e+005
6172	1.6498e+005
6173	1.2979e+006
6173	7.4511e+005
6174	1.0317e+006
6174	4.2776e+005
6175	1.0517e+006
6175	5.8136e+005
6176	0.
6176	0.
6177	0.
6177	0.
6178	0.
6178	0.
6179	0.
6179	0.
6180	0.
6180	0.
6181	1.6384e+005
6181	1.0152e+005
6182	0.
6182	0.
6183	3.8629e+005
6183	4.1781e+005
6184	0.
6184	0.
6185	0.
6185	0.
6186	0.
6186	0.
6187	0.
6187	0.
6188	0.
6188	0.
6189	0.
6189	0.
6190	0.
6190	0.
6191	0.
6191	0.
6192	0.
6192	0.
6193	0.
6193	0.
6194	0.
6194	0.
6195	0.
6195	0.
6196	0.
6196	0.
6197	0.
6197	0.
6198	0.
6198	0.
6199	0.
6199	0.
6200	0.
6200	0.
6201	0.
6201	0.
6202	0.
6202	0.
6203	0.
6203	0.
6204	13318
6204	45989
6205	0.
6205	0.
6206	0.
6206	0.
6207	0.
6207	0.
6208	0.
6208	0.
6209	0.
6209	0.
6210	0.
6210	0.
6211	0.
6211	0.
6212	0.
6212	0.
6213	0.
6213	0.
6214	0.
6214	0.
6215	0.
6215	0.
6216	0.
6216	0.
6217	0.
6217	0.
6218	0.
6218	0.
6219	0.
6219	0.
6220	0.
6220	0.
6221	0.
6221	0.
6222	0.
6222	0.
6223	0.
6223	0.
6224	0.
6224	0.
6225	0.
6225	0.
6226	0.
6226	0.
6227	0.
6227	0.
6228	0.
6228	0.
6229	0.
6229	0.
6230	0.
6230	0.
6231	0.
6231	0.
6232	0.
6232	0.
6233	0.
6233	0.
6234	0.
6234	0.
6235	0.
6235	0.
6236	0.
6236	0.
6237	9.1978e+005
6237	1.2825e+006
6238	1.3641e+006
6238	1.781e+006
6239	1.4827e+006
6239	1.8248e+006
6240	9.2676e+005
6240	1.6133e+006
6241	1.596e+006
6241	3.1077e+006
6242	1.6331e+006
6242	1.7093e+006
6243	8.0276e+005
6243	1.2838e+006
6244	2.9171e+006
6244	2.3693e+006
6245	1.2557e+006
6245	1.2104e+006
6246	1.0977e+006
6246	1.1059e+006
6247	1.6179e+006
6247	1.2947e+006
6248	2.6167e+006
6248	2.1052e+006
6249	1.821e+006
6249	1.537e+006
6250	2.8619e+006
6250	3.0476e+006
6251	1.1674e+006
6251	1.3183e+006
6252	1.2919e+006
6252	7.7282e+005
6253	1.3271e+006
6253	9.5765e+005
6254	1.4322e+006
6254	6.8641e+005
6255	2.7391e+006
6255	2.5164e+006
6256	3.9876e+006
6256	3.0882e+006
6257	2.5401e+006
6257	2.601e+006
6258	1.3628e+006
6258	6.0276e+005
6259	2.281e+006
6259	2.4852e+006
6260	9.6566e+005
6260	1.7021e+006
6261	2.4011e+006
6261	2.314e+006
6262	4.6748e+006
6262	3.4242e+006
6263	3.3993e+005
6263	1.9906e+005
6264	3.1308e+006
6264	3.0777e+006
6265	1.2446e+006
6265	1.1565e+006
6266	2.1805e+006
6266	2.5043e+006
6267	2.7512e+006
6267	2.954e+006
6268	2.505e+006
6268	3.3233e+006
6269	1.4097e+006
6269	9.0089e+005
6270	7.2126e+005
6270	1.252e+006
6271	4.517e+005
6271	7.0314e+005
6272	1.1779e+006
6272	1.6155e+006
6273	3.6946e+006
6273	3.1361e+006
6274	2.5855e+006
6274	1.4893e+006
6275	7.2834e+005
6275	1.0959e+006
6276	5.9508e+005
6276	1.4285e+006
6277	1.2202e+006
6277	1.5978e+006
6278	8.4546e+005
6278	1.0192e+006
6279	1.0232e+006
6279	1.0504e+006
6280	3.8488e+006
6280	3.0972e+006
6281	3.3309e+006
6281	2.3385e+006
6282	2.6354e+006
6282	2.0573e+006
6283	1.7747e+006
6283	1.3915e+006
6284	2.7047e+006
6284	3.2372e+006
6285	5.1799e+006
6285	3.8646e+006
6286	1.9017e+006
6286	1.3368e+006
6287	9.2663e+005
6287	1.6953e+006
6288	1.7035e+006
6288	2.2086e+006
6289	2.2903e+006
6289	2.8051e+006
6290	3.5875e+006
6290	3.6258e+006
6291	6.7848e+005
6291	7.8033e+005
6292	1.8927e+006
6292	1.8426e+006
6293	1.5574e+006
6293	1.5837e+006
6294	2.0376e+006
6294	1.6315e+006
6295	2.8692e+006
6295	2.1776e+006
6296	3.0386e+006
6296	3.1527e+006
6297	3.6809e+005
6297	1.5601e+006
6298	1.5405e+006
6298	1.321e+006
6299	3.1056e+006
6299	2.35e+006
6300	3.904e+006
6300	2.9459e+006
6301	3.7602e+006
6301	3.3909e+006
6302	5.2544e+006
6302	3.2043e+006
6303	4.6135e+006
6303	4.7145e+006
6304	4.3387e+006
6304	4.0865e+006
6305	3.0453e+006
6305	2.6061e+006
6306	4.4793e+006
6306	3.9168e+006
6307	2.2867e+006
6307	2.2248e+006
6308	5.3231e+006
6308	2.6829e+006
6309	4.9613e+006
6309	4.8403e+006
6310	2.2739e+006
6310	2.3834e+006
6311	4.5387e+006
6311	3.3301e+006
6312	4.6066e+006
6312	4.9806e+006
6313	2.9861e+006
6313	2.6826e+006
6314	3.6139e+006
6314	6.6116e+006
6315	5.0709e+006
6315	4.546e+006
6316	3.6687e+006
6316	3.8529e+006
6317	4.208e+006
6317	4.8116e+006
6318	3.6827e+006
6318	3.62e+006
6319	2.8949e+006
6319	2.9274e+006
6320	1.511e+006
6320	1.1169e+006
6321	2.6679e+006
6321	1.6376e+006
6322	1.9681e+006
6322	2.0356e+006
6323	5.4323e+006
6323	5.2319e+006
6324	3.2171e+006
6324	2.5485e+006
6325	4.6042e+006
6325	4.5113e+006
6326	1.1462e+006
6326	4.5335e+005
6327	1.5108e+006
6327	9.7028e+005
6328	9.0324e+005
6328	7.4505e+005
6329	1.9653e+005
6329	6.9924e+005
6330	2.5872e+006
6330	2.1146e+006
6331	3.8579e+006
6331	4.0826e+006
6332	1.4456e+006
6332	1.5103e+006
6333	1.6855e+006
6333	1.1797e+006
6334	1.7726e+006
6334	1.8411e+006
6335	1.0918e+006
6335	1.1734e+006
6336	2.6493e+006
6336	3.3414e+006
6337	9.634e+005
6337	1.2569e+006
6338	3.923e+006
6338	5.6868e+006
6339	3.6235e+006
6339	2.7146e+006
6340	2.366e+006
6340	1.5153e+006
6341	4.8058e+006
6341	4.4585e+006
6342	1.522e+006
6342	6.0453e+005
6343	6.9482e+005
6343	8.7202e+005
6344	9.9561e+005
6344	1.3878e+006
6345	4.7299e+006
6345	2.8016e+006
6346	5.3813e+006
6346	4.8485e+006
6347	4.5074e+006
6347	3.3674e+006
6348	2.6744e+006
6348	1.7287e+006
6349	2.2678e+006
6349	2.8876e+006
6350	4.819e+006
6350	3.2559e+006
6351	3.2697e+006
6351	3.2415e+006
6352	5.4562e+006
6352	4.5255e+006
6353	2.4041e+006
6353	2.7123e+006
6354	4.764e+006
6354	4.4706e+006
6355	4.0209e+006
6355	4.3676e+006
6356	2.6425e+006
6356	1.7279e+006
6357	4.7318e+006
6357	3.9681e+006
6358	5.5892e+006
6358	5.0118e+006
6359	3.013e+006
6359	3.0273e+006
6360	3.0704e+006
6360	3.2787e+006
6361	5.2455e+006
6361	5.0789e+006
6362	2.2064e+006
6362	2.8696e+006
6363	1.512e+006
6363	1.2835e+006
6364	2.2405e+006
6364	2.8809e+006
6365	3.3501e+006
6365	2.5604e+006
6366	3.521e+006
6366	1.5856e+006
6367	5.2217e+006
6367	3.7368e+006
6368	4.3339e+006
6368	4.2776e+006
6369	1.8719e+006
6369	2.0117e+006
6370	4.7314e+006
6370	4.6046e+006
6371	5.1508e+006
6371	4.4085e+006
6372	3.3584e+006
6372	2.822e+006
6373	4.4703e+006
6373	4.838e+006
6374	3.2342e+006
6374	2.9648e+006
6375	5.7372e+006
6375	4.4926e+006
6376	4.2511e+006
6376	4.3166e+006
6377	2.1914e+006
6377	2.0362e+006
6378	4.0854e+005
6378	3.8628e+005
6379	1.0585e+006
6379	1.3313e+006
6380	4.1082e+006
6380	4.3903e+006
6381	1.3223e+006
6381	1.0774e+006
6382	5.3617e+006
6382	5.0282e+006
6383	3.4146e+006
6383	3.1744e+006
6384	1.4458e+006
6384	1.4321e+006
6385	1.1748e+006
6385	1.5942e+006
6386	4.0387e+006
6386	5.1769e+006
6387	1.4281e+006
6387	8.193e+005
6388	1.0194e+006
6388	9.8211e+005
6389	2.7689e+006
6389	2.1833e+006
6390	2.9242e+006
6390	2.597e+006
6391	9.6059e+005
6391	1.7447e+006
6392	1.4524e+006
6392	1.0048e+006
6393	1.7189e+006
6393	1.7959e+006
6394	3.3973e+006
6394	4.7326e+006
6395	5.95e+006
6395	5.6097e+006
6396	1.8083e+006
6396	3.5701e+006
6397	2.3716e+006
6397	2.4646e+006
6398	3.1405e+006
6398	4.209e+006
6399	2.3443e+006
6399	2.8255e+006
6400	4.2857e+006
6400	5.3117e+006
6401	5.188e+006
6401	4.2824e+006
6402	3.6585e+006
6402	2.8125e+006
6403	3.8272e+006
6403	5.0384e+006
6404	3.1717e+006
6404	3.1115e+006
6405	4.0972e+006
6405	4.0292e+006
6406	3.1807e+006
6406	2.5e+006
6407	4.5305e+006
6407	3.3016e+006
6408	2.1164e+006
6408	2.4624e+006
6409	3.2437e+006
6409	3.7115e+006
6410	3.7064e+006
6410	3.9217e+006
6411	2.5453e+006
6411	2.1202e+006
6412	3.8697e+006
6412	3.6751e+006
6413	3.6716e+006
6413	3.6332e+006
6414	5.4928e+006
6414	5.3798e+006
6415	5.9752e+006
6415	6.2131e+006
6416	4.2312e+006
6416	3.4919e+006
6417	3.3819e+006
6417	3.645e+006
6418	3.9595e+006
6418	4.1449e+006
6419	1.1658e+006
6419	1.3556e+006
6420	3.496e+006
6420	3.2048e+006
6421	4.6947e+006
6421	5.237e+006
6422	3.6463e+006
6422	4.9088e+006
6423	3.3276e+006
6423	3.8708e+006
6424	1.6197e+006
6424	1.7383e+006
6425	7.2967e+005
6425	1.1057e+006
6426	1.3372e+006
6426	1.6255e+006
6427	2.4674e+006
6427	2.5188e+006
6428	4.3687e+005
6428	1.1401e+006
6429	1.3267e+006
6429	8.324e+005
6430	8.3942e+005
6430	7.1248e+005
6431	6.2133e+006
6431	4.1749e+006
6432	5.6384e+006
6432	2.2804e+006
6433	2.1311e+006
6433	1.9794e+006
6434	2.0483e+006
6434	1.7967e+006
6435	8.5205e+005
6435	1.1256e+006
6436	1.1405e+006
6436	7.0309e+005
6437	1.1673e+006
6437	1.9042e+006
6438	8.3769e+005
6438	1.6294e+006
6439	1.1792e+006
6439	1.8127e+006
6440	1.2158e+006
6440	1.3381e+006
6441	3.1251e+006
6441	4.0014e+006
6442	1.0507e+006
6442	1.5716e+006
6443	2.511e+006
6443	3.1985e+006
6444	5.7079e+006
6444	5.4695e+006
6445	2.7288e+006
6445	2.539e+006
6446	4.1025e+006
6446	4.5886e+006
6447	2.5605e+006
6447	3.2651e+006
6448	2.5818e+006
6448	2.386e+006
6449	2.501e+006
6449	2.8837e+006
6450	2.8198e+006
6450	3.0341e+006
6451	4.7163e+006
6451	5.3992e+006
6452	3.1953e+006
6452	3.4514e+006
6453	4.3227e+006
6453	4.1e+006
6454	5.1812e+006
6454	3.2435e+006
6455	3.0123e+006
6455	3.3521e+006
6456	3.351e+006
6456	3.2392e+006
6457	4.7936e+006
6457	4.2704e+006
6458	4.772e+006
6458	5.342e+006
6459	2.5788e+006
6459	2.6151e+006
6460	2.2302e+006
6460	1.9819e+006
6461	3.7125e+006
6461	3.4949e+006
6462	1.0457e+006
6462	1.5321e+006
6463	1.5196e+006
6463	2.2098e+006
6464	4.0287e+006
6464	5.9106e+006
6465	2.5075e+006
6465	1.5558e+006
6466	1.5628e+006
6466	1.1262e+006
6467	3.3865e+006
6467	3.2246e+006
6468	1.6536e+006
6468	1.3566e+006
6469	3.3197e+005
6469	4.8998e+005
6470	8.4793e+005
6470	1.133e+006
6471	4.2991e+006
6471	2.5531e+006
6472	3.6644e+006
6472	2.5232e+006
6473	2.7226e+006
6473	3.6418e+006
6474	2.2982e+006
6474	2.3859e+006
6475	9.0683e+005
6475	8.4823e+005
6476	1.7526e+006
6476	1.9891e+006
6477	1.1699e+006
6477	6.0362e+005
6478	1.4042e+006
6478	1.3428e+006
6479	2.9374e+006
6479	1.3807e+006
6480	2.1773e+006
6480	1.8295e+006
6481	2.7425e+006
6481	2.4406e+006
6482	5.352e+006
6482	4.4756e+006
6483	3.2104e+006
6483	3.3216e+006
6484	1.0728e+006
6484	1.2643e+006
6485	9.2854e+005
6485	1.6703e+006
6486	1.9325e+006
6486	2.3841e+006
6487	3.9573e+006
6487	2.6338e+006
6488	3.2126e+006
6488	3.5106e+006
6489	1.0662e+006
6489	6.4441e+005
6490	7.5466e+005
6490	3.1216e+005
6491	9.9558e+005
6491	9.682e+005
6492	1.5314e+006
6492	2.0178e+006
6493	2.7904e+006
6493	3.6246e+006
6494	2.5025e+006
6494	2.2302e+006
6495	3.6495e+006
6495	2.4445e+006
6496	2.363e+006
6496	2.0843e+006
6497	2.1661e+006
6497	1.2548e+006
6498	2.4258e+006
6498	3.2917e+006
6499	2.2011e+006
6499	2.2572e+006
6500	1.7073e+006
6500	2.2303e+006
6501	4.0877e+006
6501	3.6383e+006
6502	3.6675e+006
6502	2.962e+006
6503	4.1197e+006
6503	3.3735e+006
6504	2.7964e+006
6504	3.1584e+006
6505	2.8118e+006
6505	3.1662e+006
6506	9.7666e+005
6506	1.3635e+006
6507	3.7512e+006
6507	2.8553e+006
6508	4.4968e+006
6508	4.6536e+006
6509	0.
6509	0.
6510	0.
6510	0.
6511	8.0048e+005
6511	9.2037e+005
6512	0.
6512	0.
6513	0.
6513	0.
6514	0.
6514	0.
6515	2.5955e+006
6515	2.4125e+006
6516	9.4563e+005
6516	8.3018e+005
6517	1.3863e+006
6517	1.2374e+006
6518	0.
6518	0.
6519	0.
6519	0.
6520	0.
6520	0.
6521	0.
6521	0.
6522	0.
6522	0.
6523	0.
6523	0.
6524	0.
6524	0.
6525	0.
6525	0.
6526	0.
6526	0.
6527	0.
6527	0.
6528	3.3204e+005
6528	1.642e+005
6529	0.
6529	0.
6530	2.7971e+005
6530	4.85e+005
6531	0.
6531	0.
6532	0.
6532	0.
6533	0.
6533	0.
6534	0.
6534	0.
6535	0.
6535	0.
6536	0.
6536	0.
6537	0.
6537	0.
6538	0.
6538	0.
6539	0.
6539	0.
6540	0.
6540	0.
6541	0.
6541	0.
6542	0.
6542	0.
6543	0.
6543	0.
6544	0.
6544	0.
6545	0.
6545	0.
6546	0.
6546	0.
6547	0.
6547	0.
6548	0.
6548	0.
6549	0.
6549	0.
6550	11286
6550	10477
6551	34403
6551	1.2373e+005
6552	3.1465e+005
6552	1.7107e+005
6553	0.
6553	0.
6554	0.
6554	0.
6555	0.
6555	0.
6556	0.
6556	0.
6557	0.
6557	0.
6558	0.
6558	0.
6559	0.
6559	0.
6560	0.
6560	0.
6561	0.
6561	0.
6562	0.
6562	0.
6563	0.
6563	0.
6564	0.
6564	0.
6565	0.
6565	0.
6566	6.3223e+005
6566	1.1895e+006
6567	1.6471e+006
6567	1.8008e+006
6568	2.706e+006
6568	1.4824e+006
6569	1.6092e+006
6569	1.3274e+006
6570	1.6235e+006
6570	1.1153e+006
6571	2.1342e+006
6571	2.3398e+006
6572	8.7033e+005
6572	7.5248e+005
6573	1.1756e+006
6573	6.8169e+005
6574	1.7174e+006
6574	1.4799e+006
6575	5.8469e+005
6575	1.4382e+006
6576	1.4029e+006
6576	1.3241e+006
6577	9.8962e+005
6577	3.6976e+005
6578	1.4806e+006
6578	1.3313e+006
6579	4.3025e+005
6579	8.5984e+005
6580	1.7661e+006
6580	2.6584e+005
6581	8.3458e+005
6581	6.7776e+005
6582	1.1701e+006
6582	1.3497e+006
6583	8.0381e+005
6583	1.1092e+006
6584	1.4048e+006
6584	1.2811e+006
6585	1.1566e+006
6585	1.0999e+006
6586	1.1079e+006
6586	1.1225e+006
6587	2.133e+006
6587	1.3381e+006
6588	1.1179e+006
6588	6.5998e+005
6589	6.6131e+005
6589	1.1958e+006
6590	1.4186e+006
6590	1.1059e+006
6591	1.9354e+006
6591	1.6149e+006
6592	1.9265e+006
6592	1.1613e+006
6593	1.171e+006
6593	1.0949e+006
6594	2.0552e+006
6594	2.0408e+006
6595	2.8553e+006
6595	2.1862e+006
6596	1.5869e+006
6596	8.1687e+005
6597	1.8295e+006
6597	1.5339e+006
6598	1.3093e+006
6598	1.3283e+006
6599	1.9171e+006
6599	1.7526e+006
6600	8.1403e+005
6600	4.9785e+005
6601	1.0318e+006
6601	8.4405e+005
6602	3.5505e+006
6602	3.2061e+006
6603	1.1211e+006
6603	1.4621e+006
6604	1.7148e+006
6604	1.3873e+006
6605	1.4253e+006
6605	1.4185e+006
6606	8.811e+005
6606	1.9274e+006
6607	1.6921e+006
6607	2.7057e+006
6608	1.9023e+006
6608	2.4225e+006
6609	2.4562e+006
6609	1.3953e+006
6610	1.2511e+006
6610	1.1365e+006
6611	2.7968e+006
6611	2.7633e+006
6612	1.3032e+006
6612	2.1821e+006
6613	3.3607e+006
6613	3.3527e+006
6614	1.495e+006
6614	2.1884e+006
6615	2.2133e+006
6615	2.4701e+006
6616	1.5776e+006
6616	1.3388e+006
6617	1.453e+006
6617	1.4934e+006
6618	1.3666e+006
6618	9.6637e+005
6619	2.822e+006
6619	2.8255e+006
6620	2.3275e+006
6620	1.6525e+006
6621	2.8109e+006
6621	2.4128e+006
6622	2.0655e+006
6622	1.9017e+006
6623	2.9533e+006
6623	3.5325e+006
6624	1.5133e+006
6624	1.2401e+006
6625	2.7533e+006
6625	1.7636e+006
6626	3.2047e+006
6626	2.3175e+006
6627	4.2579e+006
6627	3.6856e+006
6628	1.0032e+006
6628	1.0019e+006
6629	2.2378e+006
6629	2.1587e+006
6630	3.2346e+006
6630	2.6907e+006
6631	2.739e+006
6631	2.5002e+006
6632	1.0152e+006
6632	1.066e+006
6633	2.3651e+006
6633	1.1384e+006
6634	1.2333e+006
6634	1.5485e+006
6635	1.4501e+006
6635	1.8689e+006
6636	2.1077e+006
6636	2.9629e+006
6637	1.506e+006
6637	1.226e+006
6638	2.2726e+006
6638	1.6986e+006
6639	1.3657e+006
6639	1.3484e+006
6640	2.393e+006
6640	3.0396e+006
6641	2.4847e+006
6641	2.1339e+006
6642	1.7934e+006
6642	2.4018e+006
6643	1.5068e+006
6643	1.4979e+006
6644	2.5636e+006
6644	2.469e+006
6645	2.3951e+006
6645	1.3756e+006
6646	1.339e+006
6646	2.2999e+006
6647	2.2798e+006
6647	2.4491e+006
6648	2.145e+006
6648	2.9429e+006
6649	2.5492e+006
6649	1.6872e+006
6650	1.7295e+006
6650	9.8901e+005
6651	2.764e+006
6651	1.708e+006
6652	3.3736e+006
6652	3.055e+006
6653	2.3276e+006
6653	3.2076e+006
6654	2.7182e+006
6654	2.4363e+006
6655	1.9497e+006
6655	2.0554e+006
6656	6.3913e+005
6656	2.4556e+006
6657	2.123e+006
6657	1.3617e+006
6658	2.2225e+006
6658	2.008e+006
6659	2.1983e+006
6659	2.8609e+006
6660	2.2003e+006
6660	2.0939e+006
6661	3.0514e+006
6661	3.0892e+006
6662	8.8471e+005
6662	1.4515e+006
6663	3.2978e+006
6663	2.9029e+006
6664	2.5876e+006
6664	2.4676e+006
6665	2.5845e+006
6665	2.5807e+006
6666	2.0216e+006
6666	2.5379e+006
6667	1.1262e+006
6667	7.6619e+005
6668	3.1563e+006
6668	4.1663e+006
6669	1.1274e+006
6669	6.6504e+005
6670	8.9145e+005
6670	5.9987e+005
6671	1.9752e+006
6671	2.1207e+006
6672	1.6779e+006
6672	1.8239e+006
6673	6.4782e+005
6673	1.4846e+006
6674	2.205e+006
6674	2.1743e+006
6675	4.0151e+006
6675	4.0501e+006
6676	2.0904e+006
6676	1.6439e+006
6677	2.921e+006
6677	2.63e+006
6678	1.3576e+006
6678	1.2411e+006
6679	1.608e+006
6679	1.7587e+006
6680	2.2273e+006
6680	2.9718e+006
6681	1.3032e+006
6681	1.7313e+006
6682	2.2102e+006
6682	3.1274e+006
6683	2.7036e+006
6683	2.8957e+006
6684	2.2651e+006
6684	1.9416e+006
6685	2.631e+006
6685	2.6571e+006
6686	2.9784e+006
6686	2.2939e+006
6687	3.4083e+006
6687	1.4441e+006
6688	1.7137e+006
6688	3.305e+006
6689	2.0959e+006
6689	3.6486e+006
6690	2.1135e+006
6690	2.7785e+006
6691	2.8234e+006
6691	2.8375e+006
6692	1.0807e+006
6692	1.3694e+006
6693	2.1408e+006
6693	2.109e+006
6694	3.3825e+006
6694	4.6727e+006
6695	3.029e+006
6695	3.2728e+006
6696	4.978e+006
6696	5.8418e+006
6697	1.4915e+006
6697	1.0092e+006
6698	3.4024e+006
6698	1.6557e+006
6699	3.9157e+006
6699	2.9534e+006
6700	1.6465e+006
6700	4.1888e+006
6701	1.8165e+006
6701	2.3058e+006
6702	7.4128e+005
6702	1.7979e+006
6703	3.275e+006
6703	5.0226e+006
6704	2.2083e+006
6704	1.6227e+006
6705	3.9532e+006
6705	2.0409e+006
6706	4.6814e+006
6706	3.1982e+006
6707	1.8267e+006
6707	2.9922e+006
6708	1.7196e+006
6708	1.1589e+006
6709	2.0557e+006
6709	7.4244e+005
6710	2.037e+006
6710	7.5443e+005
6711	1.9634e+006
6711	3.81e+006
6712	3.0159e+006
6712	2.5674e+006
6713	1.3117e+006
6713	1.9207e+006
6714	3.1345e+006
6714	3.782e+006
6715	2.0115e+006
6715	2.2235e+006
6716	2.0041e+006
6716	3.2094e+006
6717	2.6735e+006
6717	4.2473e+006
6718	2.1855e+006
6718	1.753e+006
6719	5.9477e+005
6719	1.1393e+006
6720	1.608e+006
6720	2.072e+006
6721	3.4383e+006
6721	3.9233e+006
6722	2.2612e+006
6722	2.0267e+006
6723	2.8923e+006
6723	8.1485e+005
6724	2.6044e+006
6724	4.1437e+006
6725	3.8886e+006
6725	4.4348e+006
6726	1.4102e+006
6726	2.2379e+006
6727	3.4758e+006
6727	2.7454e+006
6728	3.7288e+006
6728	4.2309e+006
6729	2.1762e+006
6729	2.3162e+006
6730	2.4204e+006
6730	1.8777e+006
6731	2.1869e+006
6731	1.8638e+006
6732	3.0214e+006
6732	2.4317e+006
6733	2.1843e+006
6733	3.1696e+006
6734	2.2547e+006
6734	2.5165e+006
6735	2.669e+006
6735	2.5541e+006
6736	1.7112e+006
6736	1.9632e+006
6737	7.2858e+005
6737	1.0152e+006
6738	1.7784e+005
6738	2.7476e+005
6739	1.009e+006
6739	9.2789e+005
6740	3.1206e+006
6740	3.1127e+006
6741	6.2899e+005
6741	5.0507e+005
6742	1.966e+006
6742	2.3462e+006
6743	2.3196e+006
6743	1.272e+006
6744	2.5311e+006
6744	2.3257e+006
6745	4.0595e+006
6745	4.3845e+006
6746	5.8103e+005
6746	1.3146e+006
6747	7.28e+005
6747	1.0027e+006
6748	2.2046e+006
6748	2.387e+006
6749	1.0837e+006
6749	1.5736e+006
6750	1.8953e+006
6750	1.7391e+006
6751	2.2344e+006
6751	1.8142e+006
6752	2.6913e+006
6752	3.9747e+006
6753	2.0884e+006
6753	2.0927e+006
6754	2.386e+006
6754	1.6315e+006
6755	1.4924e+006
6755	2.5778e+006
6756	1.3674e+006
6756	2.3771e+006
6757	1.0049e+006
6757	2.044e+006
6758	1.8336e+006
6758	1.9539e+006
6759	2.3891e+006
6759	3.0731e+006
6760	2.427e+006
6760	3.494e+006
6761	1.5988e+006
6761	1.5669e+006
6762	3.3029e+006
6762	3.2628e+006
6763	2.7676e+006
6763	2.4832e+006
6764	2.9622e+006
6764	2.7109e+006
6765	2.2806e+006
6765	2.2666e+006
6766	2.5504e+006
6766	1.7939e+006
6767	1.5188e+006
6767	1.8144e+006
6768	2.4692e+006
6768	1.7984e+006
6769	2.1161e+006
6769	1.7515e+006
6770	2.9794e+006
6770	2.9043e+006
6771	3.7105e+006
6771	5.3454e+006
6772	1.612e+006
6772	1.4495e+006
6773	5.1817e+006
6773	4.2018e+006
6774	2.5552e+006
6774	3.9014e+006
6775	1.5365e+006
6775	1.3408e+006
6776	1.6312e+006
6776	1.5857e+006
6777	3.2743e+006
6777	3.7928e+006
6778	2.2184e+006
6778	2.1578e+006
6779	2.5247e+006
6779	3.4637e+006
6780	4.5963e+006
6780	3.2538e+006
6781	2.2248e+006
6781	1.2174e+006
6782	1.9862e+006
6782	2.1148e+006
6783	1.1369e+006
6783	1.1991e+006
6784	2.1159e+006
6784	2.5937e+006
6785	3.9244e+005
6785	1.2205e+006
6786	2.8025e+006
6786	2.6381e+006
6787	2.5134e+006
6787	2.127e+006
6788	2.5008e+006
6788	2.2301e+006
6789	3.1693e+006
6789	3.1922e+006
6790	2.5107e+006
6790	2.5586e+006
6791	2.8818e+006
6791	2.2676e+006
6792	2.6991e+006
6792	2.3622e+006
6793	1.2231e+006
6793	7.7404e+005
6794	1.671e+006
6794	1.7071e+006
6795	8.4623e+005
6795	1.4466e+006
6796	1.3505e+006
6796	1.4203e+006
6797	2.0915e+006
6797	2.4549e+006
6798	2.2968e+006
6798	2.2842e+006
6799	1.9733e+006
6799	1.6775e+006
6800	3.6286e+006
6800	2.6884e+006
6801	2.0638e+006
6801	1.3621e+006
6802	1.8308e+006
6802	1.8461e+006
6803	2.1325e+006
6803	2.6328e+006
6804	2.6223e+006
6804	7.1548e+005
6805	2.1449e+006
6805	1.6715e+006
6806	2.8778e+006
6806	1.0722e+006
6807	2.0319e+006
6807	2.1338e+006
6808	2.4011e+006
6808	2.0793e+006
6809	2.3711e+006
6809	4.461e+006
6810	1.6165e+006
6810	1.1891e+006
6811	1.2876e+006
6811	2.0076e+006
6812	2.3842e+006
6812	2.8255e+006
6813	2.5817e+006
6813	1.302e+006
6814	1.5993e+006
6814	1.8327e+006
6815	2.1575e+006
6815	2.379e+006
6816	2.736e+006
6816	3.0378e+006
6817	2.5298e+006
6817	2.442e+006
6818	1.736e+006
6818	2.3341e+006
6819	1.3939e+006
6819	1.2804e+006
6820	1.6665e+006
6820	1.7841e+006
6821	2.2593e+006
6821	2.1001e+006
6822	2.3364e+006
6822	2.1981e+006
6823	2.3915e+006
6823	2.517e+006
6824	2.427e+006
6824	3.3195e+006
6825	1.355e+006
6825	1.3381e+006
6826	2.2437e+006
6826	2.6324e+006
6827	2.8797e+006
6827	1.3842e+006
6828	1.3862e+006
6828	9.0579e+005
6829	1.9727e+006
6829	1.4441e+006
6830	2.8944e+006
6830	2.0103e+006
6831	1.2946e+006
6831	2.5323e+006
6832	1.7738e+006
6832	1.7597e+006
6833	4.6302e+006
6833	4.2592e+006
6834	3.8345e+006
6834	4.5925e+006
6835	1.1435e+006
6835	1.1453e+006
6836	1.2884e+006
6836	1.7625e+006
6837	1.6406e+006
6837	4.1203e+006
6838	2.2097e+006
6838	1.9885e+006
6839	2.2292e+006
6839	2.6392e+006
6840	1.3751e+006
6840	1.028e+006
6841	2.4968e+006
6841	2.2669e+006
6842	4.7732e+006
6842	3.2536e+006
6843	3.821e+006
6843	4.0004e+006
6844	2.0046e+006
6844	3.205e+006
6845	1.5953e+006
6845	2.0524e+006
6846	1.7101e+006
6846	3.355e+006
6847	3.104e+006
6847	2.6968e+006
6848	2.3507e+006
6848	2.0187e+006
6849	3.6795e+006
6849	4.1842e+006
6850	1.8652e+006
6850	1.4969e+006
6851	3.0229e+006
6851	2.2935e+006
6852	2.4293e+006
6852	3.2574e+006
6853	8.7137e+005
6853	1.9276e+006
6854	1.3406e+006
6854	2.7378e+006
6855	3.9122e+006
6855	1.9125e+006
6856	3.9887e+006
6856	2.465e+006
6857	2.2916e+006
6857	3.1532e+006
6858	3.9075e+006
6858	3.6407e+006
6859	1.494e+006
6859	8.375e+005
6860	8.4552e+005
6860	1.3969e+006
6861	1.8416e+006
6861	1.9995e+006
6862	6.3752e+005
6862	1.4258e+006
6863	2.471e+006
6863	2.0096e+006
6864	2.7716e+006
6864	2.1653e+006
6865	1.548e+006
6865	9.4404e+005
6866	2.1116e+006
6866	3.3162e+006
6867	1.8668e+006
6867	1.6573e+006
6868	2.9078e+006
6868	1.7848e+006
6869	9.4938e+005
6869	1.702e+006
6870	2.1468e+006
6870	1.7358e+006
6871	1.5262e+006
6871	2.0286e+006
6872	4.3827e+006
6872	3.753e+006
6873	1.7585e+006
6873	1.5171e+006
6874	1.9365e+006
6874	7.6622e+005
6875	1.0346e+006
6875	1.5478e+006
6876	3.0719e+006
6876	3.0405e+006
6877	1.819e+006
6877	1.5599e+006
6878	1.0708e+006
6878	1.5395e+006
6879	2.9593e+006
6879	2.0859e+006
6880	3.9758e+006
6880	3.4007e+006
6881	5.2479e+006
6881	4.2214e+006
6882	3.4744e+006
6882	3.267e+006
6883	3.367e+006
6883	1.5376e+006
6884	2.7854e+006
6884	3.6361e+006
6885	4.7183e+006
6885	4.7254e+006
6886	2.4208e+006
6886	3.4968e+006
6887	1.0614e+006
6887	2.8825e+006
6888	1.2023e+006
6888	2.4484e+006
6889	1.4559e+006
6889	1.8688e+006
6890	7.6169e+005
6890	1.4772e+006
6891	1.0255e+006
6891	4.9757e+005
6892	2.322e+006
6892	2.919e+006
6893	1.0066e+006
6893	1.2985e+006
6894	1.4472e+006
6894	1.0944e+006
6895	1.993e+006
6895	2.1584e+006
6896	1.959e+006
6896	2.2576e+006
6897	3.0768e+006
6897	2.46e+006
6898	1.9843e+006
6898	3.0809e+006
6899	3.2743e+006
6899	9.3112e+005
6900	2.2259e+006
6900	2.2046e+006
6901	1.1941e+006
6901	9.7135e+005
6902	2.0223e+006
6902	9.6855e+005
6903	2.6009e+006
6903	1.304e+006
6904	2.3016e+006
6904	1.193e+006
6905	1.2337e+006
6905	1.2762e+006
6906	7.2952e+005
6906	1.0486e+006
6907	9.1161e+005
6907	1.6053e+006
6908	9.4833e+005
6908	6.6644e+005
6909	1.7139e+006
6909	4.6903e+005
6910	2.4135e+006
6910	3.0003e+006
6911	1.9027e+006
6911	7.8772e+005
6912	7.8061e+005
6912	7.4357e+005
6913	0.
6913	0.
6914	1.2035e+006
6914	1.1167e+006
6915	1.6192e+006
6915	2.3978e+006
6916	1.609e+006
6916	1.0907e+006
6917	0.
6917	0.
6918	1.2113e+006
6918	9.5133e+005
6919	0.
6919	0.
6920	1.0419e+006
6920	9.7378e+005
6921	0.
6921	0.
6922	0.
6922	0.
6923	3.7494e+005
6923	1.1622e+006
6924	0.
6924	0.
6925	0.
6925	0.
6926	0.
6926	0.
6927	0.
6927	0.
6928	0.
6928	0.
6929	0.
6929	0.
6930	0.
6930	0.
6931	1.1402e+005
6931	2.033e+005
6932	0.
6932	0.
6933	1.1593e+006
6933	5.03e+005
6934	0.
6934	0.
6935	0.
6935	0.
6936	0.
6936	0.
6937	0.
6937	0.
6938	0.
6938	0.
6939	0.
6939	0.
6940	18722
6940	26828
6941	0.
6941	0.
6942	2.0449e+005
6942	1.53e+005
6943	62806
6943	94897
6944	0.
6944	0.
6945	0.
6945	0.
6946	0.
6946	0.
6947	0.
6947	0.
6948	0.
6948	0.
6949	0.
6949	0.
6950	0.
6950	0.
6951	0.
6951	0.
6952	0.
6952	0.
6953	0.
6953	0.
6954	0.
6954	0.
6955	0.
6955	0.
6956	0.
6956	0.
6957	0.
6957	0.
6958	0.
6958	0.
6959	0.
6959	0.
6960	0.
6960	0.
6961	0.
6961	0.
6962	0.
6962	0.
6963	0.
6963	0.
6964	0.
6964	0.
6965	0.
6965	0.
6966	0.
6966	0.
6967	0.
6967	0.
6968	0.
6968	0.
6969	0.
6969	0.
6970	0.
6970	0.
6971	0.
6971	0.
6972	0.
6972	0.
6973	0.
6973	0.
6974	0.
6974	0.
6975	0.
6975	0.
6976	6.4333e+005
6976	1.3404e+006
6977	6.097e+005
6977	6.086e+005
6978	3.1013e+005
6978	1.2915e+006
6979	5.7469e+005
6979	1.4243e+006
6980	1.0255e+006
6980	2.1181e+005
6981	1.0331e+006
6981	9.948e+005
6982	9.5682e+005
6982	8.5646e+005
6983	1.1595e+006
6983	6.0106e+005
6984	1.9012e+006
6984	1.2414e+006
6985	1.0591e+006
6985	9.1415e+005
6986	1.78e+006
6986	2.1326e+006
6987	3.8202e+005
6987	5.7997e+005
6988	1.1971e+006
6988	8.5229e+005
6989	2.4579e+006
6989	1.5418e+006
6990	1.5724e+006
6990	4.9992e+005
6991	8.285e+005
6991	6.2677e+005
6992	1.3972e+006
6992	5.6373e+005
6993	2.3214e+006
6993	4.5894e+005
6994	1.0515e+006
6994	2.7958e+005
6995	1.2634e+006
6995	4.149e+005
6996	1.7815e+006
6996	2.4677e+006
6997	1.0262e+006
6997	1.1631e+006
6998	9.3782e+005
6998	1.3641e+006
6999	8.6149e+005
6999	1.363e+006
7000	5.0546e+005
7000	7.3459e+005
7001	1.7328e+006
7001	1.3815e+006
7002	1.2033e+006
7002	6.0561e+005
7003	1.1846e+006
7003	9.738e+005
7004	1.3865e+006
7004	1.4177e+006
7005	1.0265e+006
7005	5.9072e+005
7006	3.5562e+005
7006	4.982e+005
7007	3.7651e+005
7007	5.7543e+005
7008	3.1995e+005
7008	4.3734e+005
7009	7.519e+005
7009	7.4649e+005
7010	1.1785e+006
7010	3.6296e+005
7011	9.0082e+005
7011	9.1281e+005
7012	6.6707e+005
7012	5.0523e+005
7013	1.1758e+006
7013	1.4452e+006
7014	1.0946e+006
7014	1.2882e+006
7015	1.1887e+006
7015	1.2598e+006
7016	9.8953e+005
7016	1.2679e+006
7017	1.2555e+006
7017	5.3425e+005
7018	1.3687e+006
7018	9.6263e+005
7019	5.985e+005
7019	9.0777e+005
7020	1.3874e+006
7020	1.1367e+006
7021	1.0132e+006
7021	7.2323e+005
7022	1.2103e+006
7022	5.4385e+005
7023	9.8241e+005
7023	1.0135e+006
7024	1.3489e+006
7024	1.0522e+006
7025	1.0145e+006
7025	1.162e+006
7026	1.8026e+006
7026	1.5759e+006
7027	1.2302e+006
7027	9.7708e+005
7028	5.2141e+005
7028	8.0433e+005
7029	6.9247e+005
7029	4.3376e+005
7030	6.353e+005
7030	6.2916e+005
7031	1.1639e+006
7031	9.7444e+005
7032	1.0281e+006
7032	9.5332e+005
7033	2.1864e+006
7033	2.1436e+006
7034	2.1919e+006
7034	2.1507e+006
7035	1.183e+006
7035	8.7885e+005
7036	6.8531e+005
7036	4.493e+005
7037	1.2931e+006
7037	1.2769e+006
7038	8.3342e+005
7038	7.5618e+005
7039	2.0512e+006
7039	2.1905e+006
7040	2.0485e+006
7040	1.8144e+006
7041	3.8024e+006
7041	3.9623e+006
7042	3.709e+006
7042	3.7559e+006
7043	1.6969e+006
7043	2.036e+006
7044	3.7954e+006
7044	3.4233e+006
7045	2.5802e+006
7045	2.5663e+006
7046	3.2061e+006
7046	2.7082e+006
7047	3.0681e+006
7047	3.8544e+006
7048	4.5679e+006
7048	4.3358e+006
7049	3.022e+006
7049	4.0098e+006
7050	5.2824e+006
7050	4.5896e+006
7051	1.8121e+006
7051	1.1961e+006
7052	3.5077e+006
7052	3.2403e+006
7053	2.2895e+006
7053	2.5148e+006
7054	1.6121e+006
7054	2.5309e+006
7055	1.9521e+006
7055	2.6519e+006
7056	3.0315e+006
7056	3.5866e+006
7057	2.1206e+006
7057	2.7332e+006
7058	1.5185e+006
7058	3.2696e+006
7059	4.1227e+006
7059	4.3466e+006
7060	2.9506e+006
7060	2.1293e+006
7061	3.2127e+006
7061	3.9386e+006
7062	1.5863e+006
7062	1.0626e+006
7063	2.5491e+006
7063	2.6945e+006
7064	4.0225e+006
7064	2.4839e+006
7065	1.1583e+006
7065	9.2417e+005
7066	1.6608e+006
7066	1.5341e+006
7067	3.6327e+006
7067	3.5242e+006
7068	2.8867e+006
7068	2.7636e+006
7069	3.4935e+006
7069	3.0425e+006
7070	5.3384e+006
7070	4.7813e+006
7071	2.8443e+006
7071	3.0036e+006
7072	4.7648e+006
7072	3.8473e+006
7073	3.1508e+006
7073	3.177e+006
7074	1.7047e+006
7074	1.5185e+006
7075	2.6787e+006
7075	1.837e+006
7076	2.8592e+006
7076	2.5908e+006
7077	2.9604e+006
7077	2.3665e+006
7078	4.3543e+006
7078	4.134e+006
7079	1.9951e+006
7079	2.3995e+006
7080	2.1951e+006
7080	2.24e+006
7081	1.0736e+006
7081	1.735e+006
7082	5.6981e+006
7082	5.9575e+006
7083	7.3561e+005
7083	1.1355e+006
7084	1.9451e+006
7084	1.2087e+006
7085	6.074e+005
7085	1.7797e+006
7086	2.9816e+006
7086	2.7577e+006
7087	2.1349e+006
7087	2.1328e+006
7088	3.7121e+006
7088	3.7479e+006
7089	2.7508e+006
7089	3.0297e+006
7090	2.4695e+006
7090	1.5568e+006
7091	1.9968e+006
7091	1.9557e+006
7092	5.3968e+005
7092	1.0159e+006
7093	1.2571e+006
7093	1.347e+006
7094	2.328e+006
7094	4.0339e+006
7095	2.1518e+006
7095	2.6797e+006
7096	1.4865e+006
7096	2.3346e+006
7097	3.7349e+006
7097	4.1277e+006
7098	4.3685e+006
7098	4.5286e+006
7099	1.7024e+006
7099	2.3022e+006
7100	4.5697e+006
7100	4.1943e+006
7101	4.1384e+006
7101	2.5771e+006
7102	4.9125e+006
7102	3.2044e+006
7103	9.7658e+005
7103	9.331e+005
7104	9.6335e+005
7104	1.1007e+006
7105	2.8751e+006
7105	2.5156e+006
7106	3.6549e+006
7106	3.59e+006
7107	3.5007e+006
7107	3.9954e+006
7108	4.7839e+006
7108	4.1077e+006
7109	6.6464e+006
7109	3.5386e+006
7110	5.388e+006
7110	3.8967e+006
7111	3.9829e+006
7111	4.4024e+006
7112	3.3417e+006
7112	3.0626e+006
7113	1.8698e+006
7113	1.6927e+006
7114	4.1914e+006
7114	4.2328e+006
7115	3.1218e+006
7115	2.8991e+006
7116	3.9094e+006
7116	3.9553e+006
7117	3.7329e+006
7117	3.7553e+006
7118	6.1473e+006
7118	5.8148e+006
7119	4.1916e+006
7119	5.0318e+006
7120	6.9891e+006
7120	7.8441e+006
7121	3.4573e+006
7121	3.5155e+006
7122	4.3927e+006
7122	4.9142e+006
7123	6.8645e+006
7123	6.9331e+006
7124	1.8661e+006
7124	2.5257e+006
7125	2.3764e+006
7125	2.0218e+006
7126	3.1951e+006
7126	3.1752e+006
7127	3.7478e+006
7127	2.6174e+006
7128	3.9941e+006
7128	3.5836e+006
7129	5.2509e+006
7129	5.5117e+006
7130	5.0411e+006
7130	4.722e+006
7131	3.3797e+006
7131	3.0139e+006
7132	4.5961e+006
7132	3.0355e+006
7133	3.3217e+006
7133	3.2471e+006
7134	3.7932e+006
7134	4.5288e+006
7135	3.5942e+006
7135	4.2434e+006
7136	3.2799e+006
7136	4.1136e+006
7137	6.3335e+006
7137	4.8129e+006
7138	4.2852e+006
7138	4.3562e+006
7139	7.585e+005
7139	1.5393e+006
7140	1.6103e+006
7140	1.3875e+006
7141	2.4052e+006
7141	2.6243e+006
7142	1.4052e+006
7142	2.0889e+006
7143	1.494e+006
7143	1.6502e+006
7144	2.7628e+006
7144	2.801e+006
7145	3.0118e+006
7145	2.4245e+006
7146	1.3282e+006
7146	1.1666e+006
7147	2.3508e+006
7147	3.7326e+006
7148	4.4644e+006
7148	3.7764e+006
7149	5.8251e+006
7149	5.7024e+006
7150	1.44e+006
7150	6.2982e+005
7151	1.2271e+006
7151	9.6287e+005
7152	9.221e+005
7152	5.2608e+005
7153	1.5043e+006
7153	9.0694e+005
7154	9.9494e+005
7154	7.3136e+005
7155	1.568e+006
7155	8.7632e+005
7156	2.24e+006
7156	1.4767e+006
7157	9.6374e+005
7157	9.4827e+005
7158	1.0866e+006
7158	1.4278e+006
7159	8.7224e+005
7159	1.312e+006
7160	1.5105e+006
7160	2.2001e+006
7161	8.7671e+005
7161	1.5856e+006
7162	8.1263e+005
7162	1.4109e+006
7163	2.0448e+006
7163	7.083e+005
7164	2.7372e+006
7164	2.8452e+006
7165	2.1544e+006
7165	6.6694e+005
7166	1.4862e+006
7166	1.5836e+006
7167	1.518e+006
7167	2.1904e+006
7168	1.3267e+006
7168	1.0105e+006
7169	3.1414e+006
7169	4.0112e+006
7170	2.8446e+006
7170	1.1795e+006
7171	2.5958e+006
7171	3.0856e+006
7172	1.9783e+006
7172	2.0402e+006
7173	1.4731e+006
7173	2.5067e+006
7174	4.7258e+006
7174	4.466e+006
7175	1.7782e+006
7175	2.619e+006
7176	4.42e+006
7176	4.8132e+006
7177	2.9901e+006
7177	3.063e+006
7178	3.6647e+006
7178	3.0401e+006
7179	4.5976e+006
7179	4.8934e+006
7180	4.9034e+006
7180	4.2027e+006
7181	4.8354e+006
7181	4.0921e+006
7182	3.8993e+006
7182	4.2979e+006
7183	5.6179e+006
7183	5.3425e+006
7184	3.6229e+006
7184	5.6745e+006
7185	3.6826e+006
7185	4.3846e+006
7186	3.906e+006
7186	4.1526e+006
7187	5.8491e+006
7187	6.1584e+006
7188	5.2701e+006
7188	5.2684e+006
7189	4.8391e+006
7189	4.6476e+006
7190	5.3269e+006
7190	5.629e+006
7191	2.7288e+006
7191	1.6805e+006
7192	2.7036e+006
7192	1.4225e+006
7193	5.5629e+006
7193	5.2617e+006
7194	4.3342e+006
7194	3.6524e+006
7195	3.0658e+006
7195	2.1495e+006
7196	3.3456e+006
7196	1.6326e+006
7197	5.3182e+006
7197	2.7878e+006
7198	4.9171e+006
7198	4.1585e+006
7199	6.0778e+006
7199	3.4379e+006
7200	3.8668e+006
7200	3.6095e+006
7201	8.9456e+005
7201	6.e+005
7202	1.8994e+006
7202	2.1671e+006
7203	2.4883e+006
7203	2.6075e+006
7204	7.3046e+005
7204	1.1236e+006
7205	2.0463e+006
7205	2.2023e+006
7206	2.2694e+006
7206	1.9723e+006
7207	2.8298e+006
7207	1.6044e+006
7208	9.3921e+005
7208	1.0942e+006
7209	1.0488e+006
7209	1.027e+006
7210	1.1067e+006
7210	6.0029e+005
7211	2.2705e+006
7211	1.8521e+006
7212	1.1512e+006
7212	9.4792e+005
7213	1.2188e+006
7213	1.1223e+006
7214	1.5008e+006
7214	1.4912e+006
7215	3.1712e+006
7215	3.7706e+006
7216	1.4769e+006
7216	1.3411e+006
7217	1.1718e+006
7217	1.2017e+006
7218	1.4063e+006
7218	1.2692e+006
7219	6.7435e+005
7219	1.1276e+006
7220	2.9602e+006
7220	2.9353e+006
7221	2.4335e+006
7221	1.4664e+006
7222	1.3513e+006
7222	1.6351e+006
7223	5.7429e+005
7223	7.5488e+005
7224	2.6506e+006
7224	2.8446e+006
7225	1.4085e+006
7225	1.4527e+006
7226	1.4085e+006
7226	5.2434e+005
7227	2.2443e+006
7227	2.0156e+006
7228	6.902e+005
7228	5.6748e+005
7229	1.2299e+006
7229	6.2245e+005
7230	1.0739e+006
7230	1.646e+006
7231	2.4229e+006
7231	1.8728e+006
7232	9.8555e+005
7232	1.5586e+006
7233	7.6309e+005
7233	7.731e+005
7234	3.2894e+006
7234	3.9138e+006
7235	3.8072e+006
7235	4.6697e+006
7236	2.0353e+006
7236	3.0719e+006
7237	4.3781e+006
7237	3.2671e+006
7238	2.9018e+006
7238	3.4358e+006
7239	4.409e+006
7239	4.5992e+006
7240	3.0955e+006
7240	2.6343e+006
7241	4.9095e+006
7241	4.6895e+006
7242	3.3511e+006
7242	1.5221e+006
7243	2.2004e+006
7243	1.4454e+006
7244	4.3666e+006
7244	4.2578e+006
7245	3.7712e+006
7245	4.0671e+006
7246	2.967e+006
7246	2.3453e+006
7247	4.3615e+006
7247	2.2136e+006
7248	3.7984e+006
7248	4.4172e+006
7249	5.0342e+006
7249	2.7396e+006
7250	3.0667e+006
7250	4.5063e+006
7251	3.5277e+006
7251	4.1327e+006
7252	3.3224e+006
7252	3.265e+006
7253	4.8205e+006
7253	4.603e+006
7254	4.2854e+006
7254	4.352e+006
7255	3.9246e+006
7255	3.4871e+006
7256	3.0187e+006
7256	2.2138e+006
7257	5.0698e+006
7257	3.8258e+006
7258	3.7212e+006
7258	4.2123e+006
7259	5.0904e+006
7259	5.3513e+006
7260	4.6829e+006
7260	4.5679e+006
7261	3.5976e+006
7261	3.9881e+006
7262	4.7433e+006
7262	4.9076e+006
7263	5.086e+006
7263	4.8794e+006
7264	5.475e+006
7264	5.3767e+006
7265	5.6658e+006
7265	5.4925e+006
7266	4.0933e+006
7266	3.8541e+006
7267	3.9761e+006
7267	4.3642e+006
7268	5.3097e+006
7268	5.3105e+006
7269	2.8537e+006
7269	4.0627e+006
7270	3.6959e+006
7270	3.5275e+006
7271	3.901e+006
7271	2.9225e+006
7272	4.8439e+006
7272	5.0555e+006
7273	4.0812e+006
7273	3.7641e+006
7274	3.9709e+006
7274	2.587e+006
7275	3.8854e+006
7275	5.5134e+006
7276	4.161e+006
7276	4.0769e+006
7277	3.1365e+006
7277	3.7968e+006
7278	3.7322e+006
7278	3.8559e+006
7279	2.2325e+006
7279	2.2972e+006
7280	2.1809e+006
7280	2.1563e+006
7281	2.4516e+006
7281	2.6208e+006
7282	2.9562e+006
7282	2.2087e+006
7283	2.5317e+006
7283	3.2748e+006
7284	1.5362e+006
7284	1.0227e+006
7285	8.3018e+005
7285	1.7921e+006
7286	1.1724e+006
7286	1.3768e+006
7287	2.8781e+006
7287	2.461e+006
7288	1.5701e+006
7288	1.284e+006
7289	1.1553e+006
7289	8.9917e+005
7290	1.1125e+006
7290	1.1034e+006
7291	9.74e+005
7291	6.1794e+005
7292	1.1563e+006
7292	1.668e+006
7293	2.9997e+006
7293	1.9267e+006
7294	1.5107e+006
7294	1.1305e+006
7295	9.9209e+005
7295	1.0165e+006
7296	9.4963e+005
7296	2.0056e+006
7297	1.4008e+006
7297	1.2514e+006
7298	8.2462e+005
7298	7.1309e+005
7299	1.9348e+006
7299	2.5653e+006
7300	2.6961e+006
7300	1.7427e+006
7301	4.2902e+005
7301	1.6693e+006
7302	2.9094e+006
7302	1.0634e+006
7303	4.3379e+006
7303	3.9904e+006
7304	3.5415e+006
7304	2.0153e+006
7305	2.7535e+006
7305	9.3151e+005
7306	2.4155e+006
7306	2.3164e+006
7307	3.5524e+006
7307	2.6742e+006
7308	3.8759e+006
7308	3.846e+006
7309	3.6285e+006
7309	4.3278e+006
7310	2.9578e+006
7310	3.3018e+006
7311	2.9024e+006
7311	1.7199e+006
7312	3.9038e+006
7312	3.964e+006
7313	1.6794e+006
7313	5.1558e+006
7314	6.5664e+005
7314	4.1415e+006
7315	5.4043e+006
7315	3.4945e+006
7316	2.4979e+006
7316	3.8842e+006
7317	2.5862e+006
7317	1.4725e+006
7318	1.8446e+006
7318	3.7154e+006
7319	6.7241e+006
7319	4.0587e+006
7320	4.0035e+006
7320	5.3558e+006
7321	3.8518e+006
7321	5.5712e+006
7322	3.446e+006
7322	3.3624e+006
7323	4.4025e+006
7323	4.3004e+006
7324	4.6803e+006
7324	4.7181e+006
7325	4.6782e+006
7325	4.1761e+006
7326	4.5244e+006
7326	4.5361e+006
7327	5.887e+006
7327	6.4909e+006
7328	3.1224e+006
7328	3.1808e+006
7329	3.0359e+006
7329	3.5687e+006
7330	5.7123e+006
7330	4.3093e+006
7331	5.2713e+006
7331	4.0598e+006
7332	5.1366e+006
7332	5.5018e+006
7333	3.2191e+006
7333	2.7826e+006
7334	2.4543e+006
7334	3.6533e+006
7335	4.375e+006
7335	3.6096e+006
7336	4.7873e+006
7336	3.8927e+006
7337	5.0617e+006
7337	5.7778e+006
7338	5.2072e+006
7338	4.931e+006
7339	3.4932e+006
7339	3.1968e+006
7340	2.8108e+006
7340	3.4257e+006
7341	2.3441e+006
7341	3.3056e+006
7342	2.1883e+006
7342	3.5907e+006
7343	1.9815e+006
7343	2.9753e+006
7344	1.9388e+006
7344	2.7801e+006
7345	2.1802e+006
7345	2.0243e+006
7346	1.1567e+006
7346	1.8021e+006
7347	2.0532e+006
7347	2.5764e+006
7348	2.5501e+006
7348	1.9575e+006
7349	6.8083e+006
7349	6.069e+006
7350	3.6862e+006
7350	5.148e+006
7351	5.6739e+006
7351	4.9061e+006
7352	1.1365e+006
7352	9.6435e+005
7353	2.419e+006
7353	2.1099e+006
7354	1.1236e+006
7354	1.7694e+006
7355	5.2825e+005
7355	4.0309e+005
7356	1.1156e+006
7356	1.0492e+006
7357	4.7349e+005
7357	1.1152e+006
7358	1.5196e+006
7358	1.6111e+006
7359	8.4293e+005
7359	2.5074e+005
7360	7.3614e+005
7360	5.7348e+005
7361	7.5907e+005
7361	8.0899e+005
7362	2.3108e+006
7362	1.9574e+006
7363	1.6746e+006
7363	1.6105e+006
7364	1.0247e+006
7364	1.0168e+006
7365	1.1961e+006
7365	1.203e+006
7366	5.5402e+006
7366	4.6906e+006
7367	2.2728e+006
7367	2.3113e+006
7368	4.0746e+006
7368	5.8054e+006
7369	2.3924e+006
7369	2.5583e+006
7370	2.9135e+006
7370	2.3124e+006
7371	2.4651e+006
7371	4.0705e+005
7372	1.7135e+006
7372	1.738e+006
7373	1.5597e+006
7373	1.3872e+006
7374	1.0737e+006
7374	1.1952e+006
7375	1.6033e+006
7375	1.9341e+006
7376	2.6416e+006
7376	2.423e+006
7377	0.
7377	0.
7378	1.2634e+005
7378	1.0219e+006
7379	2.3615e+006
7379	2.4526e+006
7380	1.5146e+006
7380	1.4128e+006
7381	0.
7381	0.
7382	0.
7382	0.
7383	1.8374e+006
7383	1.7376e+006
7384	2.5153e+006
7384	3.2204e+006
7385	1.6402e+006
7385	1.9031e+006
7386	0.
7386	0.
7387	6.3749e+005
7387	3.5472e+005
7388	19376
7388	1.2525e+005
7389	6.9124e+005
7389	5.8539e+005
7390	1.3294e+006
7390	1.2426e+006
7391	18359
7391	22220
7392	4.598e+005
7392	4.5223e+005
7393	0.
7393	0.
7394	0.
7394	0.
7395	0.
7395	0.
7396	6.1304e+005
7396	6.8252e+005
7397	6.7864e+005
7397	9.3243e+005
7398	0.
7398	0.
7399	0.
7399	0.
7400	0.
7400	0.
7401	0.
7401	0.
7402	0.
7402	0.
7403	0.
7403	0.
7404	0.
7404	0.
7405	0.
7405	0.
7406	2.1494e+005
7406	1.1398e+005
7407	0.
7407	0.
7408	0.
7408	0.
7409	0.
7409	0.
7410	0.
7410	0.
7411	0.
7411	0.
7412	0.
7412	0.
7413	0.
7413	0.
7414	0.
7414	0.
7415	0.
7415	0.
7416	0.
7416	0.
7417	0.
7417	0.
7418	0.
7418	0.
7419	0.
7419	0.
7420	0.
7420	0.
7421	0.
7421	0.
7422	0.
7422	0.
7423	0.
7423	0.
7424	0.
7424	0.
7425	0.
7425	0.
7426	0.
7426	0.
7427	0.
7427	0.
7428	0.
7428	0.
7429	0.
7429	0.
7430	0.
7430	0.
7431	0.
7431	0.
7432	0.
7432	0.
7433	0.
7433	0.
7434	0.
7434	0.
7435	0.
7435	0.
7436	0.
7436	0.
7437	0.
7437	0.
7438	0.
7438	0.
7439	0.
7439	0.
7440	0.
7440	0.
7441	0.
7441	0.
7442	0.
7442	0.
7443	0.
7443	0.
7444	0.
7444	0.
7445	0.
7445	0.
7446	0.
7446	0.
7447	0.
7447	0.
7448	0.
7448	0.
7449	0.
7449	0.
7450	0.
7450	0.
7451	0.
7451	0.
7452	0.
7452	0.
7453	0.
7453	0.
7454	0.
7454	0.
7455	0.
7455	0.
7456	0.
7456	0.
7457	0.
7457	0.
7458	0.
7458	0.
7459	0.
7459	0.
7460	0.
7460	0.
7461	0.
7461	0.
7462	0.
7462	0.
7463	0.
7463	0.
7464	0.
7464	0.
7465	0.
7465	0.
7466	0.
7466	0.
7467	0.
7467	0.
7468	0.
7468	0.
7469	0.
7469	0.
7470	2.7371e+005
7470	2.8285e+005
7471	2.4525e+005
7471	2.3736e+005
7472	2.8414e+005
7472	5.7086e+005
7473	5.8594e+005
7473	5.9095e+005
7474	1.5515e+006
7474	7.4922e+005
7475	1.3916e+006
7475	1.3555e+006
7476	1.0706e+006
7476	1.4795e+006
7477	1.8508e+006
7477	9.9751e+005
7478	2.2191e+006
7478	2.0885e+006
7479	1.3016e+006
7479	1.9924e+006
7480	2.305e+006
7480	2.2443e+006
7481	1.6703e+006
7481	1.8275e+006
7482	1.7006e+006
7482	2.3441e+006
7483	1.9121e+006
7483	1.9132e+006
7484	1.5748e+006
7484	2.402e+006
7485	1.2435e+006
7485	6.59e+005
7486	2.5724e+006
7486	5.687e+005
7487	3.2945e+006
7487	2.7034e+006
7488	1.4866e+006
7488	2.2293e+006
7489	2.3106e+006
7489	1.6486e+006
7490	1.2717e+006
7490	5.1509e+005
7491	1.5282e+006
7491	1.4844e+006
7492	1.2029e+006
7492	1.4072e+006
7493	1.4744e+006
7493	1.6312e+006
7494	4.818e+005
7494	7.3081e+005
7495	7.2706e+005
7495	8.4897e+005
7496	6.2592e+005
7496	9.1937e+005
7497	7.9889e+005
7497	9.0898e+005
7498	1.2994e+006
7498	9.9182e+005
7499	9.4087e+005
7499	7.9661e+005
7500	3.8811e+005
7500	6.6147e+005
7501	7.999e+005
7501	1.2482e+006
7502	9.3027e+005
7502	1.0948e+006
7503	5.9874e+005
7503	7.379e+005
7504	8.3424e+005
7504	1.0177e+006
7505	5.3894e+005
7505	8.358e+005
7506	1.1564e+006
7506	9.462e+005
7507	1.0796e+006
7507	6.8319e+005
7508	1.8256e+006
7508	1.8103e+006
7509	1.2592e+006
7509	1.3444e+006
7510	1.124e+006
7510	8.3476e+005
7511	6.8453e+005
7511	1.1174e+006
7512	1.5964e+006
7512	1.645e+006
7513	1.3209e+006
7513	1.4028e+006
7514	1.5983e+006
7514	1.5408e+006
7515	1.0403e+006
7515	1.4307e+006
7516	2.2744e+006
7516	1.8115e+006
7517	5.7273e+005
7517	1.0873e+006
7518	6.6443e+005
7518	8.0216e+005
7519	7.919e+005
7519	7.3405e+005
7520	1.3471e+006
7520	2.0951e+006
7521	1.4047e+006
7521	2.0031e+006
7522	1.9944e+006
7522	1.72e+006
7523	2.0321e+006
7523	1.6365e+006
7524	2.5708e+006
7524	2.2797e+006
7525	1.6051e+006
7525	1.2425e+006
7526	8.5949e+005
7526	1.3176e+006
7527	1.0123e+006
7527	9.993e+005
7528	1.2128e+006
7528	1.5562e+006
7529	1.8483e+006
7529	1.0797e+006
7530	1.3687e+006
7530	1.5939e+006
7531	1.4484e+006
7531	1.3658e+006
7532	1.649e+006
7532	1.6943e+006
7533	1.6562e+006
7533	1.1968e+006
7534	2.3169e+006
7534	2.2402e+006
7535	8.5805e+005
7535	1.3977e+006
7536	8.6368e+005
7536	1.6379e+006
7537	8.3158e+005
7537	1.1334e+006
7538	1.1556e+006
7538	8.77e+005
7539	7.12e+005
7539	1.0173e+006
7540	1.0209e+006
7540	6.4356e+005
7541	2.4978e+006
7541	2.0126e+006
7542	2.0755e+006
7542	2.1614e+006
7543	2.669e+006
7543	2.2057e+006
7544	2.9439e+006
7544	2.6032e+006
7545	3.7782e+006
7545	2.8935e+006
7546	2.4066e+006
7546	1.9181e+006
7547	1.896e+006
7547	3.3738e+006
7548	3.2776e+006
7548	3.175e+006
7549	2.9844e+006
7549	2.7944e+006
7550	2.5814e+006
7550	2.6114e+006
7551	3.3638e+006
7551	2.7419e+006
7552	1.6454e+006
7552	2.0314e+006
7553	3.0191e+006
7553	2.6591e+006
7554	1.302e+006
7554	1.652e+006
7555	3.1835e+006
7555	1.9641e+006
7556	4.5867e+006
7556	3.4226e+006
7557	3.1351e+006
7557	2.1441e+006
7558	4.4529e+006
7558	4.4377e+006
7559	2.8491e+006
7559	2.347e+006
7560	2.9613e+006
7560	3.167e+006
7561	1.9425e+006
7561	1.9606e+006
7562	3.1605e+006
7562	3.4804e+006
7563	1.8785e+006
7563	1.557e+006
7564	2.7679e+006
7564	2.9429e+006
7565	3.3572e+006
7565	3.1308e+006
7566	3.7424e+006
7566	3.7353e+006
7567	4.6816e+006
7567	5.0239e+006
7568	1.8573e+006
7568	1.4756e+006
7569	2.3788e+006
7569	1.9142e+006
7570	2.6821e+006
7570	2.6566e+006
7571	4.9941e+006
7571	3.9723e+006
7572	6.85e+006
7572	3.5042e+006
7573	3.5241e+006
7573	4.323e+006
7574	4.7682e+006
7574	4.6032e+006
7575	5.0298e+006
7575	5.451e+006
7576	5.4182e+006
7576	3.3368e+006
7577	4.3301e+006
7577	3.9559e+006
7578	3.5514e+006
7578	2.6894e+006
7579	9.298e+005
7579	6.9202e+005
7580	2.8406e+006
7580	2.1356e+006
7581	1.5145e+006
7581	1.5459e+006
7582	3.6589e+006
7582	3.2813e+006
7583	5.1539e+006
7583	5.5168e+006
7584	6.4865e+006
7584	5.8847e+006
7585	3.7836e+006
7585	2.6142e+006
7586	8.9463e+006
7586	7.378e+006
7587	2.5826e+006
7587	2.1379e+006
7588	4.0672e+006
7588	2.495e+006
7589	3.5895e+006
7589	3.9256e+006
7590	5.1301e+006
7590	4.6315e+006
7591	1.4917e+006
7591	1.2157e+006
7592	1.4291e+006
7592	1.6757e+006
7593	3.2552e+006
7593	2.8127e+006
7594	3.5745e+006
7594	4.993e+006
7595	4.5197e+006
7595	3.6358e+006
7596	1.5002e+006
7596	1.425e+006
7597	3.898e+005
7597	1.1392e+006
7598	7.671e+005
7598	2.062e+006
7599	1.747e+006
7599	2.5313e+006
7600	6.009e+006
7600	6.9344e+006
7601	3.5037e+006
7601	2.3669e+006
7602	1.9141e+006
7602	1.182e+006
7603	1.9106e+006
7603	1.2522e+006
7604	5.17e+006
7604	5.7385e+006
7605	5.2168e+006
7605	3.8917e+006
7606	9.1613e+005
7606	1.328e+006
7607	1.1105e+006
7607	1.5762e+006
7608	2.1672e+006
7608	2.0029e+006
7609	1.7284e+006
7609	1.3053e+006
7610	4.1761e+006
7610	2.5273e+006
7611	2.9779e+006
7611	3.265e+006
7612	3.4772e+006
7612	3.286e+006
7613	6.5071e+006
7613	5.6804e+006
7614	3.7145e+006
7614	4.0155e+006
7615	3.8483e+006
7615	4.6907e+006
7616	3.6225e+006
7616	4.2043e+006
7617	2.8328e+006
7617	2.1015e+006
7618	3.5112e+006
7618	4.3519e+006
7619	4.8727e+006
7619	4.4215e+006
7620	5.5375e+006
7620	5.0183e+006
7621	4.7933e+006
7621	5.1802e+006
7622	5.1596e+006
7622	5.7562e+006
7623	2.5196e+006
7623	3.9986e+006
7624	2.3581e+006
7624	2.5528e+006
7625	3.2815e+006
7625	3.7684e+006
7626	4.2172e+006
7626	3.3781e+006
7627	4.5413e+006
7627	4.35e+006
7628	3.1103e+006
7628	2.1481e+006
7629	2.9858e+006
7629	2.4242e+006
7630	4.7679e+006
7630	2.9101e+006
7631	3.5662e+006
7631	2.7502e+006
7632	3.8013e+006
7632	3.1953e+006
7633	3.9905e+006
7633	4.5058e+006
7634	2.2589e+006
7634	1.8384e+006
7635	4.2443e+006
7635	4.3287e+006
7636	3.0105e+006
7636	3.4417e+006
7637	2.4452e+006
7637	3.1785e+006
7638	3.0441e+006
7638	3.6761e+006
7639	2.8162e+006
7639	3.0838e+006
7640	2.7942e+006
7640	2.9971e+006
7641	4.5376e+006
7641	5.7749e+006
7642	3.8916e+006
7642	2.7683e+006
7643	2.2472e+006
7643	1.7675e+006
7644	4.0879e+006
7644	3.697e+006
7645	3.1586e+006
7645	2.7409e+006
7646	1.3268e+006
7646	2.4561e+006
7647	5.138e+006
7647	5.0509e+006
7648	2.6827e+006
7648	2.6758e+006
7649	2.7714e+006
7649	3.0096e+006
7650	6.2645e+006
7650	5.8109e+006
7651	4.6231e+006
7651	4.3224e+006
7652	6.9559e+006
7652	4.7061e+006
7653	4.2857e+006
7653	3.1636e+006
7654	5.2202e+006
7654	5.553e+006
7655	5.2325e+006
7655	4.6363e+006
7656	3.6739e+006
7656	3.2023e+006
7657	5.4561e+006
7657	5.3846e+006
7658	2.8504e+006
7658	2.2275e+006
7659	3.3114e+006
7659	2.2035e+006
7660	5.0357e+006
7660	4.5263e+006
7661	4.7334e+006
7661	5.3349e+006
7662	4.6918e+006
7662	4.1847e+006
7663	6.2213e+006
7663	5.9174e+006
7664	3.1208e+006
7664	3.1737e+006
7665	4.3753e+006
7665	5.2952e+006
7666	3.0658e+006
7666	2.7631e+006
7667	1.2595e+006
7667	1.8127e+006
7668	1.8748e+006
7668	3.5985e+006
7669	2.62e+006
7669	2.6058e+006
7670	3.9708e+006
7670	3.3913e+006
7671	3.5842e+006
7671	6.2439e+006
7672	3.7081e+006
7672	3.2369e+006
7673	2.9889e+006
7673	2.6531e+006
7674	4.7987e+006
7674	4.4402e+006
7675	5.4539e+006
7675	5.1497e+006
7676	2.2938e+006
7676	2.551e+006
7677	2.4722e+006
7677	2.3996e+006
7678	4.7651e+006
7678	4.0962e+006
7679	5.5731e+006
7679	4.7775e+006
7680	3.7468e+006
7680	4.6837e+006
7681	5.7489e+006
7681	5.2911e+006
7682	1.9333e+006
7682	2.0155e+006
7683	4.6644e+006
7683	3.3213e+006
7684	4.15e+006
7684	4.2406e+006
7685	5.732e+006
7685	5.4358e+006
7686	4.6313e+006
7686	5.4667e+006
7687	4.9991e+006
7687	4.7702e+006
7688	5.2094e+006
7688	4.6237e+006
7689	5.178e+006
7689	5.4708e+006
7690	1.7598e+006
7690	1.8819e+006
7691	3.2493e+006
7691	4.4062e+006
7692	2.0256e+006
7692	2.0497e+006
7693	4.8551e+006
7693	5.0465e+006
7694	4.5128e+006
7694	3.8485e+006
7695	4.0235e+006
7695	4.2035e+006
7696	3.4142e+006
7696	3.6759e+006
7697	2.8599e+006
7697	4.2713e+006
7698	2.4262e+006
7698	2.7247e+006
7699	4.7489e+006
7699	2.4041e+006
7700	3.1909e+006
7700	3.8394e+006
7701	2.501e+006
7701	1.9572e+006
7702	2.0444e+006
7702	2.212e+006
7703	3.4158e+006
7703	3.564e+006
7704	3.7069e+006
7704	2.395e+006
7705	3.1278e+006
7705	3.2231e+006
7706	6.0878e+006
7706	4.5564e+006
7707	3.9087e+006
7707	3.4401e+006
7708	4.4186e+006
7708	3.4012e+006
7709	5.3589e+006
7709	4.8664e+006
7710	5.4252e+006
7710	4.4461e+006
7711	4.7859e+006
7711	4.7849e+006
7712	3.4431e+006
7712	3.7255e+006
7713	1.6171e+006
7713	3.4937e+006
7714	1.564e+006
7714	1.962e+006
7715	5.8844e+006
7715	5.4587e+006
7716	2.911e+006
7716	1.6628e+006
7717	2.5656e+006
7717	1.5309e+006
7718	4.0145e+006
7718	4.8797e+006
7719	6.1681e+006
7719	6.0338e+006
7720	6.0183e+006
7720	6.1946e+006
7721	5.1825e+006
7721	6.0987e+006
7722	5.7035e+006
7722	5.6655e+006
7723	4.1987e+006
7723	4.0645e+006
7724	2.3402e+006
7724	2.6318e+006
7725	3.2105e+006
7725	3.8965e+006
7726	4.8111e+006
7726	4.9601e+006
7727	2.8868e+006
7727	2.921e+006
7728	4.6241e+006
7728	4.8447e+006
7729	3.3912e+006
7729	2.9928e+006
7730	3.4259e+006
7730	7.6815e+006
7731	1.6821e+006
7731	2.051e+006
7732	2.5158e+006
7732	2.7194e+006
7733	4.8764e+005
7733	1.0746e+006
7734	2.8242e+006
7734	3.1103e+006
7735	1.3648e+006
7735	1.5752e+006
7736	1.9545e+006
7736	1.4563e+006
7737	2.8823e+006
7737	2.1371e+006
7738	3.4184e+006
7738	2.5619e+006
7739	1.6167e+006
7739	1.9788e+006
7740	4.0395e+006
7740	3.5813e+006
7741	1.3121e+006
7741	1.8538e+006
7742	4.0575e+006
7742	3.7365e+006
7743	3.1597e+006
7743	5.0373e+006
7744	5.8473e+006
7744	6.2722e+006
7745	4.0599e+006
7745	4.0551e+006
7746	4.4607e+006
7746	4.6003e+006
7747	5.7719e+006
7747	5.59e+006
7748	3.6096e+006
7748	3.6858e+006
7749	2.3377e+006
7749	2.197e+006
7750	2.0516e+006
7750	3.7412e+006
7751	5.4841e+006
7751	3.1585e+006
7752	5.4134e+006
7752	5.0743e+006
7753	2.2341e+006
7753	2.1085e+006
7754	2.3095e+006
7754	2.0845e+006
7755	3.5454e+006
7755	3.7136e+006
7756	3.371e+006
7756	2.7919e+006
7757	3.4866e+006
7757	3.0488e+006
7758	5.934e+006
7758	4.9692e+006
7759	5.0376e+006
7759	3.8614e+006
7760	1.8973e+006
7760	2.6974e+006
7761	4.2395e+006
7761	4.7226e+006
7762	2.3897e+006
7762	3.3563e+006
7763	3.5503e+006
7763	3.6653e+006
7764	2.8717e+006
7764	2.7716e+006
7765	6.0083e+006
7765	6.3493e+006
7766	3.6272e+006
7766	4.1697e+006
7767	6.0515e+006
7767	8.5259e+006
7768	3.8762e+006
7768	4.333e+006
7769	2.3398e+006
7769	2.3398e+006
7770	3.4808e+006
7770	4.994e+006
7771	5.4648e+006
7771	6.2214e+006
7772	1.9629e+006
7772	2.5147e+006
7773	3.9443e+006
7773	3.984e+006
7774	4.3444e+006
7774	3.8004e+006
7775	1.9462e+006
7775	1.9388e+006
7776	2.3998e+006
7776	2.5645e+006
7777	2.4881e+006
7777	5.0498e+006
7778	4.2712e+006
7778	3.4488e+006
7779	1.8883e+006
7779	3.6027e+006
7780	6.8444e+006
7780	5.7559e+006
7781	1.4285e+006
7781	3.1132e+006
7782	2.0973e+006
7782	2.1581e+006
7783	4.5905e+006
7783	3.3872e+006
7784	2.7819e+006
7784	2.774e+006
7785	3.6505e+006
7785	5.3958e+006
7786	4.1395e+006
7786	5.4038e+006
7787	5.9461e+006
7787	5.2385e+006
7788	5.0502e+006
7788	4.3817e+006
7789	3.8323e+006
7789	4.2628e+006
7790	2.898e+006
7790	4.3806e+006
7791	5.5565e+006
7791	7.2601e+006
7792	1.8138e+006
7792	1.9162e+006
7793	3.8291e+006
7793	3.2649e+006
7794	3.5308e+006
7794	3.5319e+006
7795	1.5385e+006
7795	1.1107e+006
7796	3.2626e+006
7796	2.3925e+006
7797	2.6336e+006
7797	2.8163e+006
7798	4.8627e+006
7798	4.7976e+006
7799	4.1501e+006
7799	3.1176e+006
7800	3.6002e+006
7800	3.0235e+006
7801	5.5664e+006
7801	6.3124e+006
7802	2.9222e+006
7802	3.654e+006
7803	4.9157e+006
7803	2.659e+006
7804	2.6678e+006
7804	3.3148e+006
7805	2.2782e+006
7805	2.9186e+006
7806	1.4623e+006
7806	3.2119e+006
7807	1.1535e+006
7807	2.0032e+006
7808	2.8613e+006
7808	1.8045e+006
7809	6.3962e+006
7809	6.3605e+006
7810	3.3355e+006
7810	4.0893e+006
7811	5.7182e+006
7811	5.9759e+006
7812	5.1948e+006
7812	4.2306e+006
7813	1.9313e+006
7813	2.1605e+006
7814	3.0367e+006
7814	3.6272e+006
7815	4.306e+006
7815	4.4399e+006
7816	1.341e+006
7816	1.9592e+006
7817	3.5613e+006
7817	5.1643e+006
7818	2.4829e+006
7818	3.1487e+006
7819	2.1381e+006
7819	4.4102e+006
7820	1.2315e+006
7820	2.7575e+006
7821	1.746e+006
7821	2.4627e+006
7822	2.7835e+006
7822	3.5148e+006
7823	1.8341e+006
7823	3.0398e+006
7824	2.9663e+006
7824	2.9212e+006
7825	2.7461e+006
7825	3.216e+006
7826	3.867e+006
7826	4.6953e+006
7827	4.7112e+006
7827	4.6901e+006
7828	2.8216e+006
7828	2.6208e+006
7829	3.2563e+006
7829	2.3051e+006
7830	2.9769e+006
7830	1.5368e+006
7831	4.6409e+006
7831	3.2891e+006
7832	2.8936e+006
7832	2.4415e+006
7833	3.7049e+006
7833	2.8633e+006
7834	3.8806e+006
7834	3.7125e+006
7835	6.0165e+006
7835	4.5723e+006
7836	4.4895e+006
7836	1.44e+006
7837	2.8414e+006
7837	2.8374e+006
7838	5.0099e+006
7838	3.9901e+006
7839	4.193e+006
7839	4.2303e+006
7840	2.7538e+006
7840	2.0626e+006
7841	3.6069e+006
7841	3.0348e+006
7842	3.2235e+006
7842	2.7432e+006
7843	2.6956e+006
7843	2.9698e+006
7844	3.8567e+006
7844	4.5487e+006
7845	4.5422e+006
7845	5.0438e+006
7846	3.5075e+006
7846	1.8418e+006
7847	5.0283e+006
7847	4.5155e+006
7848	3.2756e+006
7848	1.8871e+006
7849	2.0062e+006
7849	1.8739e+006
7850	3.7996e+006
7850	6.0166e+006
7851	2.0156e+006
7851	1.6077e+006
7852	3.0339e+006
7852	2.9486e+006
7853	4.2778e+006
7853	3.9087e+006
7854	1.9216e+006
7854	1.5218e+006
7855	2.8855e+006
7855	2.3989e+006
7856	3.7895e+006
7856	2.8819e+006
7857	3.8607e+006
7857	4.1625e+006
7858	8.2411e+005
7858	2.8244e+006
7859	2.441e+006
7859	3.2359e+006
7860	3.2029e+006
7860	3.2729e+006
7861	2.4076e+006
7861	1.8989e+006
7862	1.3921e+006
7862	3.1062e+006
7863	2.1167e+006
7863	2.1371e+006
7864	1.4636e+006
7864	8.4966e+005
7865	1.4575e+006
7865	9.767e+005
7866	6.4194e+005
7866	9.0519e+005
7867	1.424e+006
7867	2.0856e+006
7868	2.103e+006
7868	2.4747e+006
7869	2.7279e+006
7869	3.2439e+006
7870	3.6307e+006
7870	4.472e+006
7871	4.5883e+006
7871	4.8186e+006
7872	2.502e+006
7872	2.5875e+006
7873	1.2716e+006
7873	9.8801e+005
7874	4.8057e+005
7874	1.4568e+005
7875	9.6779e+005
7875	5.6585e+005
7876	6.9418e+005
7876	1.2927e+006
7877	1.3624e+006
7877	4.3181e+005
7878	3.5749e+006
7878	3.6504e+006
7879	4.6529e+006
7879	3.6308e+006
7880	6.499e+006
7880	4.7024e+006
7881	7.4238e+006
7881	6.1085e+006
7882	4.6485e+006
7882	5.4035e+006
7883	28302
7883	21641
7884	1.4978e+006
7884	5.9137e+005
7885	2.1723e+006
7885	1.9155e+006
7886	1.4429e+006
7886	1.5916e+006
7887	1.2284e+006
7887	9.7235e+005
7888	0.
7888	0.
7889	0.
7889	0.
7890	0.
7890	0.
7891	4.3471e+005
7891	4.772e+005
7892	1.6854e+006
7892	2.3509e+006
7893	3.4917e+006
7893	3.628e+006
7894	6.4127e+005
7894	8.144e+005
7895	8.9795e+005
7895	9.6108e+005
7896	1.7785e+006
7896	2.2967e+006
7897	0.
7897	0.
7898	0.
7898	0.
7899	1.5536e+005
7899	1.8644e+005
7900	1.1208e+006
7900	5.7845e+005
7901	0.
7901	0.
7902	0.
7902	0.
7903	0.
7903	0.
7904	0.
7904	0.
7905	0.
7905	0.
7906	0.
7906	0.
7907	0.
7907	0.
7908	1090.8
7908	2165.4
7909	30336
7909	47251
7910	0.
7910	0.
7911	0.
7911	0.
7912	0.
7912	0.
7913	0.
7913	0.
7914	0.
7914	0.
7915	0.
7915	0.
7916	0.
7916	0.
7917	0.
7917	0.
7918	0.
7918	0.
7919	0.
7919	0.
7920	0.
7920	0.
7921	0.
7921	0.
7922	0.
7922	0.
7923	0.
7923	0.
7924	0.
7924	0.
7925	0.
7925	0.
7926	0.
7926	0.
7927	0.
7927	0.
7928	0.
7928	0.
7929	0.
7929	0.
7930	0.
7930	0.
7931	0.
7931	0.
7932	0.
7932	0.
7933	0.
7933	0.
7934	0.
7934	0.
7935	0.
7935	0.
7936	0.
7936	0.
7937	0.
7937	0.
7938	0.
7938	0.
7939	0.
7939	0.
7940	0.
7940	0.
7941	0.
7941	0.
7942	0.
7942	0.
7943	0.
7943	0.
7944	0.
7944	0.
7945	0.
7945	0.
7946	0.
7946	0.
7947	0.
7947	0.
7948	0.
7948	0.
7949	0.
7949	0.
7950	0.
7950	0.
7951	0.
7951	0.
7952	0.
7952	0.
7953	0.
7953	0.
7954	0.
7954	0.
7955	0.
7955	0.
7956	0.
7956	0.
7957	0.
7957	0.
7958	0.
7958	0.
7959	0.
7959	0.
7960	0.
7960	0.
7961	0.
7961	0.
7962	0.
7962	0.
7963	0.
7963	0.
7964	0.
7964	0.
7965	0.
7965	0.
7966	0.
7966	0.
7967	0.
7967	0.
7968	0.
7968	0.
7969	0.
7969	0.
7970	0.
7970	0.
7971	0.
7971	0.
7972	0.
7972	0.
7973	0.
7973	0.
7974	0.
7974	0.
7975	1.9687e+005
7975	1.9551e+005
7976	1.2355e+006
7976	1.416e+006
7977	1.3154e+006
7977	7.415e+005
7978	1.6693e+006
7978	1.0041e+006
7979	1.7712e+006
7979	9.2029e+005
7980	1.4462e+006
7980	1.105e+006
7981	1.4358e+006
7981	1.0003e+006
7982	1.7191e+006
7982	1.975e+006
7983	9.5017e+005
7983	1.8246e+006
7984	2.0028e+006
7984	4.7033e+005
7985	1.5882e+006
7985	9.1765e+005
7986	1.5632e+006
7986	2.1864e+006
7987	2.3013e+006
7987	7.368e+005
7988	9.9194e+005
7988	4.2898e+005
7989	1.1189e+006
7989	4.1302e+005
7990	1.2042e+006
7990	1.1044e+006
7991	9.7355e+005
7991	1.7647e+006
7992	1.148e+006
7992	1.2586e+006
7993	1.6529e+006
7993	1.0371e+006
7994	1.3309e+006
7994	7.8069e+005
7995	1.2933e+006
7995	1.0895e+006
7996	1.0775e+006
7996	1.036e+006
7997	1.1417e+006
7997	1.0235e+006
7998	1.6618e+006
7998	1.2853e+006
7999	9.7013e+005
7999	1.1619e+006
8000	1.4324e+006
8000	8.0831e+005
8001	1.6112e+006
8001	1.0372e+006
8002	1.9399e+006
8002	1.8364e+006
8003	1.7146e+006
8003	1.4962e+006
8004	1.7587e+006
8004	1.0364e+006
8005	8.7898e+005
8005	4.8253e+005
8006	1.7338e+006
8006	2.6506e+006
8007	9.8627e+005
8007	8.7605e+005
8008	1.0812e+006
8008	6.7781e+005
8009	1.1605e+006
8009	3.0249e+005
8010	1.7842e+006
8010	1.4851e+006
8011	1.3589e+006
8011	1.4294e+006
8012	2.2415e+006
8012	2.0744e+006
8013	2.5377e+006
8013	2.5074e+006
8014	1.9702e+006
8014	1.9238e+006
8015	1.7828e+006
8015	1.9085e+006
8016	1.4449e+006
8016	1.9044e+006
8017	2.1721e+006
8017	1.6192e+006
8018	2.1212e+006
8018	1.5861e+006
8019	3.5103e+006
8019	2.6937e+006
8020	3.8198e+006
8020	2.5219e+006
8021	3.2548e+006
8021	6.7791e+006
8022	2.1056e+006
8022	1.0374e+006
8023	1.0467e+006
8023	3.9898e+005
8024	1.5734e+006
8024	1.0536e+006
8025	2.1284e+006
8025	2.4657e+006
8026	3.4677e+006
8026	3.1959e+006
8027	2.4581e+006
8027	2.8873e+006
8028	2.9905e+006
8028	2.9562e+006
8029	1.7707e+006
8029	1.2169e+006
8030	3.135e+006
8030	2.4519e+006
8031	1.129e+006
8031	1.7567e+006
8032	3.5641e+006
8032	3.501e+006
8033	1.4267e+006
8033	1.1137e+006
8034	1.8905e+006
8034	2.4679e+006
8035	1.7633e+006
8035	1.3845e+006
8036	1.3627e+006
8036	3.1836e+006
8037	1.4762e+006
8037	1.5912e+006
8038	2.6895e+006
8038	2.5275e+006
8039	2.549e+006
8039	2.3337e+006
8040	2.2535e+006
8040	2.2694e+006
8041	3.5764e+006
8041	3.2969e+006
8042	1.3992e+006
8042	1.4335e+006
8043	3.0204e+006
8043	2.5258e+006
8044	3.5364e+006
8044	3.8963e+006
8045	7.0993e+005
8045	8.9941e+005
8046	1.5056e+006
8046	1.2453e+006
8047	2.9225e+006
8047	2.6772e+006
8048	1.8938e+006
8048	4.2038e+005
8049	9.1746e+005
8049	1.5032e+006
8050	2.5383e+006
8050	2.4306e+006
8051	2.2413e+006
8051	1.1849e+006
8052	3.2733e+006
8052	3.5041e+006
8053	2.3606e+006
8053	1.9277e+006
8054	1.9908e+006
8054	2.1237e+006
8055	1.2708e+006
8055	1.6172e+006
8056	1.8298e+006
8056	2.4598e+006
8057	2.2553e+006
8057	2.0088e+006
8058	2.0372e+006
8058	1.6604e+006
8059	2.5868e+006
8059	1.2125e+006
8060	1.8918e+006
8060	3.4122e+006
8061	3.2631e+006
8061	3.2228e+006
8062	1.5993e+006
8062	1.7377e+006
8063	3.39e+006
8063	3.3838e+006
8064	2.7765e+006
8064	3.1927e+006
8065	2.0209e+006
8065	2.5095e+006
8066	2.1257e+006
8066	1.6228e+006
8067	3.2142e+006
8067	2.5243e+006
8068	2.9738e+006
8068	3.4474e+006
8069	1.0576e+006
8069	1.9501e+006
8070	1.1619e+006
8070	3.4616e+006
8071	1.2616e+006
8071	1.1574e+006
8072	1.5506e+006
8072	8.3331e+005
8073	1.8038e+006
8073	1.1149e+006
8074	2.9609e+006
8074	3.6399e+006
8075	1.6293e+006
8075	1.8645e+006
8076	2.7065e+006
8076	2.319e+006
8077	2.6379e+006
8077	3.211e+006
8078	4.1783e+006
8078	1.9387e+006
8079	3.217e+006
8079	1.5418e+006
8080	4.7445e+006
8080	4.503e+006
8081	1.5927e+006
8081	1.9221e+006
8082	2.2926e+006
8082	1.6186e+006
8083	2.6772e+006
8083	2.1473e+006
8084	2.1084e+006
8084	1.4134e+006
8085	2.8014e+006
8085	2.6483e+006
8086	2.565e+006
8086	3.0564e+006
8087	1.2555e+006
8087	1.7881e+006
8088	2.3861e+006
8088	3.1525e+006
8089	2.445e+006
8089	2.7207e+006
8090	2.1561e+006
8090	2.5137e+006
8091	2.0486e+006
8091	2.1706e+006
8092	1.1736e+006
8092	3.4385e+006
8093	1.8369e+006
8093	2.029e+006
8094	2.5099e+006
8094	2.7931e+006
8095	8.2839e+005
8095	1.5683e+006
8096	2.4127e+006
8096	2.0897e+006
8097	2.0051e+006
8097	1.9793e+006
8098	1.6546e+006
8098	6.5319e+005
8099	2.2292e+006
8099	2.2483e+006
8100	1.1419e+006
8100	1.0047e+006
8101	1.1784e+006
8101	1.4186e+006
8102	1.9919e+006
8102	2.2212e+006
8103	1.8002e+006
8103	2.097e+006
8104	2.3298e+006
8104	1.3461e+006
8105	1.8897e+006
8105	1.7874e+006
8106	2.5506e+006
8106	2.254e+006
8107	3.0958e+006
8107	2.8354e+006
8108	2.7616e+006
8108	3.0447e+006
8109	2.7038e+006
8109	2.3586e+006
8110	2.9186e+006
8110	2.3502e+006
8111	2.6829e+006
8111	2.9679e+006
8112	2.3841e+006
8112	1.8782e+006
8113	3.564e+006
8113	2.6167e+006
8114	3.1775e+006
8114	2.9386e+006
8115	1.8129e+006
8115	1.4952e+006
8116	2.5542e+006
8116	1.8201e+006
8117	2.5676e+006
8117	3.9826e+006
8118	2.6365e+006
8118	2.0408e+006
8119	3.1405e+006
8119	3.8392e+006
8120	2.2355e+006
8120	2.1048e+006
8121	1.5643e+006
8121	2.2619e+006
8122	7.5032e+005
8122	1.5462e+006
8123	2.5299e+006
8123	1.7998e+006
8124	3.3636e+006
8124	3.6455e+006
8125	1.0279e+006
8125	9.2178e+005
8126	2.8447e+006
8126	3.0051e+006
8127	3.6492e+006
8127	1.9618e+006
8128	1.171e+006
8128	1.9768e+006
8129	1.9461e+006
8129	4.1021e+006
8130	2.6284e+006
8130	4.0943e+006
8131	1.4139e+006
8131	2.3599e+006
8132	1.2569e+006
8132	6.6863e+005
8133	1.2909e+006
8133	1.3222e+006
8134	1.5749e+006
8134	1.8557e+006
8135	2.8701e+006
8135	2.1765e+006
8136	1.5078e+006
8136	1.9386e+006
8137	1.3338e+006
8137	3.8899e+006
8138	1.993e+006
8138	3.415e+006
8139	2.6587e+006
8139	2.0507e+006
8140	2.2134e+006
8140	2.2281e+006
8141	2.2673e+006
8141	2.4016e+006
8142	1.2716e+006
8142	1.5595e+006
8143	1.6863e+006
8143	2.1195e+006
8144	2.3518e+006
8144	2.5847e+006
8145	1.1134e+006
8145	9.8725e+005
8146	2.5434e+006
8146	2.5454e+006
8147	2.5854e+006
8147	4.1853e+006
8148	3.5906e+006
8148	2.5652e+006
8149	1.5028e+006
8149	1.2407e+006
8150	2.592e+006
8150	2.15e+006
8151	1.182e+006
8151	1.0568e+006
8152	3.5523e+006
8152	3.419e+006
8153	2.4741e+006
8153	2.4588e+006
8154	2.1729e+006
8154	2.2733e+006
8155	3.4016e+006
8155	3.045e+006
8156	2.6541e+006
8156	3.2098e+006
8157	4.051e+006
8157	3.6152e+006
8158	3.3007e+006
8158	3.4423e+006
8159	2.4672e+006
8159	2.7056e+006
8160	2.8663e+006
8160	2.4425e+006
8161	2.427e+006
8161	2.1231e+006
8162	2.6912e+006
8162	2.5434e+006
8163	7.5073e+005
8163	1.1325e+006
8164	2.4345e+006
8164	2.9304e+006
8165	7.2619e+005
8165	1.0628e+006
8166	4.1085e+006
8166	4.012e+006
8167	2.3883e+006
8167	1.4733e+006
8168	1.8805e+006
8168	1.6458e+006
8169	7.7343e+005
8169	1.0916e+006
8170	3.3446e+006
8170	3.6619e+006
8171	1.0711e+006
8171	1.4461e+006
8172	2.4723e+006
8172	2.4889e+006
8173	2.3369e+006
8173	2.9412e+006
8174	3.9134e+006
8174	4.826e+006
8175	1.7513e+006
8175	2.308e+006
8176	3.189e+006
8176	2.7998e+006
8177	1.6926e+006
8177	3.0643e+006
8178	2.4387e+006
8178	2.7215e+006
8179	1.9552e+006
8179	2.0867e+006
8180	2.968e+006
8180	1.9088e+006
8181	2.1312e+006
8181	1.3454e+006
8182	3.1512e+006
8182	2.5276e+006
8183	2.1725e+006
8183	2.0428e+006
8184	2.7173e+006
8184	2.0837e+006
8185	2.5783e+006
8185	2.6755e+006
8186	3.1499e+006
8186	3.1973e+006
8187	1.3027e+006
8187	1.3514e+006
8188	1.7847e+006
8188	1.9611e+006
8189	1.3742e+006
8189	1.5449e+006
8190	3.5398e+006
8190	3.3793e+006
8191	2.1129e+006
8191	2.8586e+006
8192	3.5287e+006
8192	2.4437e+006
8193	2.5165e+006
8193	2.5108e+006
8194	3.611e+006
8194	3.159e+006
8195	1.3159e+006
8195	1.4125e+006
8196	3.5971e+006
8196	4.739e+006
8197	1.9212e+006
8197	1.7633e+006
8198	1.31e+006
8198	2.883e+006
8199	3.5243e+006
8199	2.7507e+006
8200	3.5316e+006
8200	3.932e+006
8201	1.9765e+006
8201	2.3945e+006
8202	2.6346e+006
8202	3.0569e+006
8203	3.617e+006
8203	3.2311e+006
8204	4.2961e+006
8204	4.2834e+006
8205	3.8335e+006
8205	3.8974e+006
8206	3.214e+006
8206	3.227e+006
8207	2.3559e+006
8207	3.2327e+006
8208	2.4074e+006
8208	1.3563e+006
8209	2.7635e+006
8209	3.6885e+006
8210	1.7839e+006
8210	2.2775e+006
8211	3.4402e+006
8211	3.5563e+006
8212	8.0001e+005
8212	2.6127e+006
8213	1.8362e+006
8213	2.7728e+006
8214	1.6815e+006
8214	1.3997e+006
8215	3.0901e+006
8215	2.6953e+006
8216	1.0329e+006
8216	9.4643e+005
8217	2.6794e+006
8217	2.6941e+006
8218	3.0731e+006
8218	1.0695e+006
8219	1.9643e+006
8219	1.0567e+006
8220	2.9136e+006
8220	2.5502e+006
8221	1.6543e+006
8221	1.2954e+006
8222	1.5157e+006
8222	1.5015e+006
8223	3.2477e+006
8223	3.2134e+006
8224	7.646e+005
8224	8.5337e+005
8225	1.4639e+006
8225	1.4007e+006
8226	6.9049e+005
8226	8.2032e+005
8227	1.7256e+006
8227	2.9994e+006
8228	1.5259e+006
8228	1.1311e+006
8229	1.7384e+006
8229	1.1398e+006
8230	5.8935e+005
8230	6.7804e+005
8231	2.6887e+006
8231	3.0482e+006
8232	6.0513e+005
8232	6.2073e+005
8233	6.9241e+005
8233	1.0211e+006
8234	2.8545e+006
8234	3.3977e+006
8235	2.3453e+006
8235	2.1162e+006
8236	1.7721e+006
8236	1.2549e+006
8237	8.6648e+005
8237	7.4905e+005
8238	1.4279e+006
8238	1.8249e+006
8239	1.9111e+006
8239	3.9412e+006
8240	2.8882e+006
8240	3.4995e+006
8241	1.4448e+006
8241	2.9204e+006
8242	2.1006e+006
8242	2.0487e+006
8243	2.3202e+006
8243	2.8515e+006
8244	1.4796e+006
8244	1.0003e+006
8245	3.2323e+006
8245	4.1508e+006
8246	7.1491e+005
8246	1.4806e+006
8247	2.4514e+006
8247	1.9598e+006
8248	2.547e+006
8248	3.0133e+006
8249	1.9842e+006
8249	2.0334e+006
8250	3.5804e+006
8250	4.4281e+006
8251	1.5782e+006
8251	1.8336e+006
8252	1.4813e+006
8252	1.9549e+006
8253	2.9004e+006
8253	2.8198e+006
8254	3.0422e+006
8254	3.0002e+006
8255	4.5163e+006
8255	4.8183e+006
8256	3.6328e+006
8256	8.6475e+005
8257	5.3812e+006
8257	5.1461e+006
8258	2.6343e+006
8258	2.1507e+006
8259	1.7457e+006
8259	1.7061e+006
8260	2.7173e+006
8260	2.6385e+006
8261	2.8045e+006
8261	1.9508e+006
8262	2.0564e+006
8262	2.663e+006
8263	2.6867e+006
8263	2.695e+006
8264	2.892e+006
8264	2.5659e+006
8265	3.4245e+006
8265	3.2444e+006
8266	3.0033e+006
8266	4.3391e+006
8267	1.9854e+006
8267	1.6304e+006
8268	2.7677e+006
8268	2.6856e+006
8269	2.262e+006
8269	2.4444e+006
8270	2.1481e+006
8270	2.1575e+006
8271	5.7847e+005
8271	8.4639e+005
8272	2.1388e+006
8272	2.6124e+006
8273	2.0235e+006
8273	2.1918e+006
8274	3.7945e+006
8274	3.5625e+006
8275	3.9906e+006
8275	3.5071e+006
8276	2.2461e+006
8276	3.7949e+006
8277	2.8572e+006
8277	3.1057e+006
8278	1.6342e+006
8278	1.3668e+006
8279	1.1019e+006
8279	1.776e+006
8280	1.7143e+006
8280	8.5978e+005
8281	1.3737e+006
8281	3.5185e+005
8282	1.4414e+006
8282	1.2641e+006
8283	6.0173e+005
8283	1.5454e+006
8284	9.5972e+005
8284	1.2528e+006
8285	5.78e+005
8285	7.6912e+005
8286	5.4322e+005
8286	2.372e+005
8287	1.9595e+006
8287	1.2424e+006
8288	1.8326e+006
8288	3.1992e+005
8289	8.8102e+005
8289	1.8678e+006
8290	1.684e+006
8290	2.7034e+006
8291	2.3791e+006
8291	2.594e+006
8292	3.0848e+006
8292	3.4563e+006
8293	0.
8293	0.
8294	1.4403e+006
8294	1.8789e+006
8295	9.1754e+005
8295	1.7026e+006
8296	0.
8296	0.
8297	0.
8297	0.
8298	1.3785e+005
8298	2.2508e+005
8299	8.3674e+005
8299	8.622e+005
8300	3.0633e+005
8300	4.0581e+005
8301	5.4678e+005
8301	9.7428e+005
8302	2.4397e+006
8302	2.0827e+006
8303	1.9233e+006
8303	7.1645e+005
8304	1.1838e+006
8304	9.0909e+005
8305	0.
8305	0.
8306	0.
8306	0.
8307	0.
8307	0.
8308	0.
8308	0.
8309	0.
8309	0.
8310	0.
8310	0.
8311	0.
8311	0.
8312	0.
8312	0.
8313	0.
8313	0.
8314	0.
8314	0.
8315	0.
8315	0.
8316	0.
8316	0.
8317	0.
8317	0.
8318	0.
8318	0.
8319	0.
8319	0.
8320	0.
8320	0.
8321	0.
8321	0.
8322	0.
8322	0.
8323	0.
8323	0.
8324	0.
8324	0.
8325	0.
8325	0.
8326	0.
8326	0.
8327	0.
8327	0.
8328	0.
8328	0.
8329	0.
8329	0.
8330	0.
8330	0.
8331	0.
8331	0.
8332	0.
8332	0.
8333	0.
8333	0.
8334	0.
8334	0.
8335	0.
8335	0.
8336	0.
8336	0.
8337	0.
8337	0.
8338	0.
8338	0.
8339	0.
8339	0.
8340	0.
8340	0.
8341	0.
8341	0.
8342	0.
8342	0.
8343	0.
8343	0.
8344	0.
8344	0.
8345	0.
8345	0.
8346	0.
8346	0.
8347	0.
8347	0.
8348	0.
8348	0.
8349	0.
8349	0.
8350	0.
8350	0.
8351	0.
8351	0.
8352	0.
8352	0.
8353	0.
8353	0.
8354	0.
8354	0.
8355	0.
8355	0.
8356	0.
8356	0.
8357	0.
8357	0.
8358	0.
8358	0.
8359	0.
8359	0.
8360	2.379e+006
8360	1.5694e+006
8361	1.3238e+006
8361	2.1651e+006
8362	2.3629e+006
8362	1.7026e+006
8363	1.0943e+006
8363	4.0737e+006
8364	1.6307e+006
8364	1.7684e+006
8365	1.4951e+006
8365	2.4816e+006
8366	1.533e+006
8366	2.1391e+006
8367	1.076e+006
8367	1.3074e+006
8368	1.2681e+006
8368	2.0677e+006
8369	2.1219e+006
8369	1.4925e+006
8370	1.522e+006
8370	1.2396e+006
8371	1.9115e+006
8371	1.9786e+006
8372	1.6519e+006
8372	1.2861e+006
8373	1.5887e+006
8373	1.3365e+006
8374	2.1465e+006
8374	1.819e+006
8375	1.2796e+006
8375	1.1844e+006
8376	1.0712e+006
8376	1.099e+006
8377	2.2493e+006
8377	1.8633e+006
8378	1.5203e+006
8378	1.5068e+006
8379	1.5885e+006
8379	1.5978e+006
8380	3.2041e+006
8380	2.5837e+006
8381	1.5996e+006
8381	1.1601e+006
8382	1.1628e+006
8382	1.4939e+006
8383	2.0917e+006
8383	1.6678e+006
8384	1.3561e+006
8384	1.1351e+006
8385	1.7943e+006
8385	1.337e+006
8386	2.1501e+006
8386	1.3988e+006
8387	2.0741e+006
8387	2.5787e+006
8388	3.0808e+006
8388	2.7841e+006
8389	2.1268e+006
8389	2.8287e+006
8390	1.9788e+006
8390	2.9643e+006
8391	2.5483e+006
8391	2.0814e+006
8392	2.231e+006
8392	2.2057e+006
8393	1.4977e+006
8393	1.8012e+006
8394	1.5482e+006
8394	9.8531e+005
8395	3.0435e+006
8395	1.8472e+006
8396	1.4365e+006
8396	1.1409e+006
8397	1.8054e+006
8397	5.3643e+005
8398	1.6013e+006
8398	1.2822e+006
8399	1.6838e+006
8399	2.2226e+006
8400	8.6612e+005
8400	9.0413e+005
8401	1.3155e+006
8401	1.9607e+006
8402	1.0831e+006
8402	1.4628e+006
8403	4.7279e+005
8403	5.8837e+005
8404	1.5151e+006
8404	1.3095e+006
8405	8.9549e+005
8405	1.6306e+006
8406	1.332e+006
8406	1.1144e+006
8407	1.7165e+006
8407	1.321e+006
8408	1.7128e+006
8408	1.3117e+006
8409	1.3904e+006
8409	5.3596e+005
8410	9.1785e+005
8410	8.4164e+005
8411	1.5999e+006
8411	1.2015e+006
8412	1.6675e+006
8412	1.6173e+006
8413	1.1904e+006
8413	4.9528e+005
8414	1.073e+006
8414	8.1354e+005
8415	1.4766e+006
8415	2.248e+006
8416	6.4915e+005
8416	1.4897e+006
8417	1.1192e+006
8417	1.1847e+006
8418	1.3865e+006
8418	1.8047e+006
8419	2.8396e+006
8419	1.0456e+006
8420	3.0334e+006
8420	2.3179e+006
8421	6.4178e+005
8421	1.4651e+006
8422	1.607e+006
8422	2.2915e+006
8423	1.3481e+006
8423	5.0292e+005
8424	1.9563e+006
8424	1.6338e+006
8425	1.5698e+006
8425	1.9012e+006
8426	1.4704e+006
8426	5.7261e+005
8427	1.7404e+006
8427	6.0616e+005
8428	1.321e+006
8428	1.0834e+006
8429	1.4839e+006
8429	1.3616e+006
8430	7.4078e+005
8430	9.5711e+005
8431	1.5257e+005
8431	1.0513e+006
8432	1.409e+006
8432	1.3007e+006
8433	4.1015e+006
8433	3.2818e+006
8434	1.9059e+006
8434	1.2302e+006
8435	6.1651e+005
8435	1.0959e+006
8436	2.1341e+006
8436	1.0755e+006
8437	2.0873e+006
8437	7.7516e+005
8438	1.5184e+006
8438	5.2654e+005
8439	1.9908e+006
8439	1.0766e+006
8440	3.9234e+006
8440	3.6048e+006
8441	4.9955e+006
8441	5.1532e+006
8442	4.1526e+006
8442	1.8667e+006
8443	3.6107e+006
8443	3.7438e+006
8444	3.0522e+006
8444	2.9481e+006
8445	2.2499e+006
8445	2.1712e+006
8446	3.4237e+006
8446	2.9883e+006
8447	3.7231e+006
8447	3.5573e+006
8448	2.5784e+006
8448	3.2186e+006
8449	2.039e+006
8449	2.5485e+006
8450	5.0439e+006
8450	4.4983e+006
8451	3.9622e+006
8451	3.5599e+006
8452	2.4696e+006
8452	2.7919e+006
8453	3.0222e+006
8453	3.0757e+006
8454	3.365e+006
8454	3.4488e+006
8455	3.2317e+006
8455	3.164e+006
8456	1.4897e+006
8456	1.3369e+006
8457	3.3472e+006
8457	2.9938e+006
8458	2.8459e+006
8458	3.1965e+006
8459	5.087e+006
8459	5.1833e+006
8460	4.0472e+006
8460	3.1533e+006
8461	3.6882e+006
8461	3.0186e+006
8462	3.4305e+006
8462	3.5305e+006
8463	2.447e+006
8463	2.0738e+006
8464	1.6074e+006
8464	2.2056e+006
8465	1.2872e+006
8465	2.8243e+006
8466	3.9619e+006
8466	4.0894e+006
8467	2.7713e+006
8467	1.3675e+006
8468	3.4977e+006
8468	4.1187e+006
8469	4.2552e+006
8469	3.5346e+006
8470	3.1697e+006
8470	2.3505e+006
8471	9.8582e+005
8471	1.1439e+006
8472	1.445e+006
8472	1.4405e+006
8473	7.3027e+005
8473	9.405e+005
8474	2.1598e+006
8474	3.2135e+006
8475	1.883e+006
8475	2.3838e+006
8476	3.5321e+006
8476	3.0449e+006
8477	1.1316e+006
8477	7.0948e+005
8478	1.1396e+006
8478	1.264e+006
8479	2.0042e+006
8479	1.5734e+006
8480	9.6491e+005
8480	1.8292e+006
8481	1.0832e+006
8481	9.5261e+005
8482	1.8127e+006
8482	1.4438e+006
8483	7.2522e+005
8483	8.0598e+005
8484	1.6653e+006
8484	5.7134e+005
8485	7.1825e+005
8485	5.1223e+005
8486	1.7529e+006
8486	2.4745e+006
8487	2.5323e+006
8487	3.1166e+006
8488	4.8466e+005
8488	1.3555e+006
8489	1.1626e+006
8489	1.3382e+006
8490	2.0859e+006
8490	8.4044e+005
8491	1.8418e+006
8491	2.1192e+006
8492	1.2594e+006
8492	1.0274e+006
8493	1.3014e+006
8493	1.466e+006
8494	1.9321e+006
8494	2.2505e+006
8495	1.0368e+006
8495	1.4631e+006
8496	1.9525e+006
8496	1.7442e+006
8497	1.4077e+006
8497	1.4838e+006
8498	9.3047e+005
8498	1.2113e+006
8499	9.8908e+005
8499	9.1026e+005
8500	4.4946e+006
8500	3.6244e+006
8501	4.0342e+006
8501	2.7491e+006
8502	2.3192e+006
8502	1.9494e+006
8503	2.8323e+006
8503	3.592e+006
8504	3.8902e+006
8504	3.7103e+006
8505	2.0789e+006
8505	2.5534e+006
8506	3.9367e+006
8506	4.319e+006
8507	2.2229e+006
8507	3.9843e+006
8508	1.5735e+006
8508	3.7933e+006
8509	2.2567e+006
8509	1.3503e+006
8510	4.7201e+006
8510	3.5037e+006
8511	3.6761e+006
8511	3.6984e+006
8512	3.1345e+006
8512	3.1949e+006
8513	3.556e+006
8513	3.6716e+006
8514	5.4232e+006
8514	5.4852e+006
8515	4.0599e+006
8515	3.1783e+006
8516	2.0616e+006
8516	3.6382e+006
8517	2.3734e+006
8517	3.8954e+006
8518	3.0209e+006
8518	2.6152e+006
8519	6.1475e+006
8519	4.9625e+006
8520	5.0856e+006
8520	5.0941e+006
8521	2.4811e+006
8521	2.5434e+006
8522	4.7275e+006
8522	4.4805e+006
8523	1.801e+006
8523	2.3071e+006
8524	2.3366e+006
8524	1.7976e+006
8525	4.7859e+006
8525	4.7733e+006
8526	3.0447e+006
8526	2.7456e+006
8527	1.8156e+006
8527	1.2313e+006
8528	1.9319e+006
8528	1.1351e+006
8529	4.0472e+006
8529	3.7801e+006
8530	3.1258e+006
8530	3.4672e+006
8531	4.7831e+006
8531	5.8275e+006
8532	2.1507e+006
8532	2.4807e+006
8533	1.6811e+006
8533	2.0625e+006
8534	5.2524e+006
8534	5.1679e+006
8535	1.5151e+006
8535	1.7268e+006
8536	3.5777e+006
8536	4.3123e+006
8537	2.4273e+006
8537	2.8765e+006
8538	2.6892e+006
8538	2.9808e+006
8539	3.3935e+006
8539	4.0998e+006
8540	3.2042e+006
8540	4.0308e+006
8541	3.2741e+006
8541	1.9228e+006
8542	4.3513e+006
8542	4.2337e+006
8543	4.2166e+006
8543	3.8409e+006
8544	3.1026e+006
8544	3.0124e+006
8545	4.5912e+006
8545	4.1343e+006
8546	2.8629e+006
8546	2.8673e+006
8547	6.1605e+006
8547	6.6057e+006
8548	3.6994e+006
8548	3.7383e+006
8549	2.9119e+006
8549	3.1349e+006
8550	5.2513e+006
8550	5.3619e+006
8551	1.7478e+006
8551	1.5108e+006
8552	2.0168e+006
8552	3.0798e+006
8553	3.2686e+006
8553	3.5194e+006
8554	2.1437e+006
8554	2.2631e+006
8555	3.1149e+006
8555	2.2236e+006
8556	5.875e+005
8556	9.0062e+005
8557	3.9091e+006
8557	3.9986e+006
8558	1.0311e+006
8558	9.2217e+005
8559	1.0006e+006
8559	1.013e+006
8560	1.3487e+006
8560	1.5348e+006
8561	1.2918e+006
8561	1.4661e+006
8562	2.5745e+006
8562	2.1396e+006
8563	8.6689e+005
8563	9.9485e+005
8564	8.96e+005
8564	5.5014e+005
8565	3.9377e+006
8565	3.4911e+006
8566	1.4655e+006
8566	6.6522e+005
8567	9.2587e+005
8567	1.0765e+006
8568	1.6607e+006
8568	1.0956e+006
8569	9.3177e+005
8569	1.1193e+006
8570	9.7203e+005
8570	1.0589e+006
8571	8.9831e+005
8571	1.3551e+006
8572	8.3498e+005
8572	3.5367e+005
8573	1.3873e+006
8573	9.7329e+005
8574	3.2821e+006
8574	3.9409e+006
8575	3.1926e+006
8575	3.3865e+006
8576	2.7337e+006
8576	3.4454e+006
8577	2.5202e+006
8577	2.6187e+006
8578	2.2828e+006
8578	2.015e+006
8579	3.9501e+006
8579	3.9006e+006
8580	3.8079e+006
8580	3.939e+006
8581	2.5761e+006
8581	2.5091e+006
8582	3.1826e+006
8582	4.7213e+006
8583	4.7745e+006
8583	4.7845e+006
8584	3.7377e+006
8584	4.3996e+006
8585	1.7064e+006
8585	2.7476e+006
8586	4.4897e+006
8586	4.7205e+006
8587	4.3994e+006
8587	4.7297e+006
8588	2.7547e+006
8588	3.5899e+006
8589	3.107e+006
8589	5.001e+006
8590	2.872e+006
8590	5.2646e+006
8591	4.0496e+006
8591	3.256e+006
8592	5.4623e+006
8592	3.7549e+006
8593	3.9885e+006
8593	4.4414e+006
8594	2.9416e+006
8594	3.8934e+006
8595	3.5723e+006
8595	2.956e+006
8596	9.7229e+005
8596	3.176e+006
8597	1.3585e+006
8597	3.6429e+006
8598	4.5695e+006
8598	4.6715e+006
8599	4.0915e+006
8599	3.3035e+006
8600	3.8499e+006
8600	3.8182e+006
8601	3.8866e+006
8601	3.8859e+006
8602	3.2869e+006
8602	3.0038e+006
8603	1.5928e+006
8603	1.0077e+006
8604	2.84e+006
8604	1.9377e+006
8605	1.7805e+006
8605	2.7578e+006
8606	9.4477e+005
8606	1.902e+006
8607	1.1846e+006
8607	1.206e+006
8608	7.9694e+005
8608	6.5742e+005
8609	1.2885e+006
8609	7.0788e+005
8610	8.5035e+005
8610	5.714e+005
8611	1.8375e+006
8611	1.6665e+006
8612	2.5009e+006
8612	2.5813e+006
8613	7.6215e+005
8613	1.6995e+006
8614	2.5203e+006
8614	1.1664e+006
8615	1.1755e+006
8615	9.3706e+005
8616	1.1737e+006
8616	1.5119e+006
8617	1.1662e+006
8617	1.6882e+006
8618	5.3668e+005
8618	1.1753e+006
8619	6.9118e+005
8619	1.4146e+006
8620	1.0717e+006
8620	1.0568e+006
8621	2.2066e+006
8621	2.3697e+006
8622	9.5764e+005
8622	9.5158e+005
8623	1.8729e+006
8623	2.552e+006
8624	1.0221e+006
8624	2.2108e+006
8625	7.373e+005
8625	6.6694e+005
8626	3.9489e+005
8626	7.71e+005
8627	1.1391e+006
8627	8.8432e+005
8628	5.0366e+005
8628	9.5976e+005
8629	3.278e+006
8629	3.3882e+006
8630	2.0725e+006
8630	2.3991e+006
8631	2.9985e+006
8631	3.2745e+006
8632	4.1746e+006
8632	3.5628e+006
8633	3.8354e+006
8633	3.2453e+006
8634	2.0169e+006
8634	1.9473e+006
8635	2.624e+006
8635	4.0207e+006
8636	4.5592e+006
8636	3.3034e+006
8637	1.8696e+006
8637	1.4206e+006
8638	2.6708e+006
8638	2.957e+006
8639	3.7041e+006
8639	2.456e+006
8640	2.8996e+006
8640	4.5227e+006
8641	3.0776e+006
8641	1.8127e+006
8642	3.2148e+006
8642	4.0141e+006
8643	4.1352e+006
8643	4.1071e+006
8644	4.1811e+006
8644	4.3413e+006
8645	3.0877e+006
8645	3.4068e+006
8646	3.2141e+006
8646	2.6671e+006
8647	2.9436e+006
8647	3.7821e+006
8648	2.9205e+006
8648	3.5007e+006
8649	3.2582e+006
8649	3.8973e+006
8650	3.1852e+006
8650	5.3395e+006
8651	2.4427e+006
8651	4.1423e+006
8652	2.5596e+006
8652	3.1691e+006
8653	2.6769e+006
8653	3.5533e+006
8654	2.6869e+006
8654	3.1646e+006
8655	2.2631e+006
8655	2.0546e+006
8656	2.3065e+006
8656	2.5454e+006
8657	3.0404e+006
8657	4.3916e+006
8658	3.0619e+006
8658	3.5861e+006
8659	2.5086e+006
8659	2.0408e+006
8660	3.0524e+006
8660	3.6132e+006
8661	2.6833e+006
8661	2.8964e+006
8662	1.262e+006
8662	4.2495e+005
8663	1.1096e+006
8663	6.9549e+005
8664	1.2288e+006
8664	2.4327e+006
8665	2.222e+006
8665	2.4956e+006
8666	1.8534e+006
8666	2.0528e+006
8667	2.7802e+006
8667	2.0164e+006
8668	2.6238e+006
8668	2.3468e+006
8669	2.9458e+006
8669	2.3318e+006
8670	2.3255e+006
8670	2.209e+006
8671	2.0997e+006
8671	3.7388e+005
8672	9.4185e+005
8672	1.4388e+006
8673	8.2823e+005
8673	9.1661e+005
8674	1.2612e+006
8674	1.5655e+006
8675	9.25e+005
8675	1.053e+006
8676	2.013e+006
8676	1.8316e+006
8677	1.7834e+006
8677	1.2324e+006
8678	2.5883e+006
8678	3.2006e+006
8679	1.7339e+006
8679	1.6712e+006
8680	9.6894e+005
8680	6.6076e+005
8681	1.1033e+006
8681	8.3695e+005
8682	1.2058e+006
8682	4.0733e+005
8683	1.4861e+006
8683	1.4744e+006
8684	1.0582e+006
8684	1.108e+006
8685	8.9423e+005
8685	1.2644e+006
8686	7.5616e+005
8686	6.9269e+005
8687	2.7938e+006
8687	1.8284e+006
8688	1.1799e+006
8688	6.9797e+005
8689	1.6429e+006
8689	9.0132e+005
8690	3.4145e+006
8690	3.7639e+006
8691	2.742e+006
8691	1.2723e+006
8692	3.2322e+006
8692	3.1467e+006
8693	1.4573e+006
8693	2.9595e+006
8694	3.4776e+006
8694	1.7793e+006
8695	2.7961e+006
8695	1.3725e+006
8696	2.2647e+006
8696	1.403e+006
8697	2.6716e+006
8697	3.7852e+006
8698	2.0803e+006
8698	2.9429e+006
8699	1.4902e+006
8699	2.8877e+006
8700	3.0923e+006
8700	3.6348e+006
8701	2.5466e+006
8701	2.1224e+006
8702	3.5101e+006
8702	3.0138e+006
8703	3.4767e+006
8703	1.8233e+006
8704	1.6693e+006
8704	2.078e+006
8705	3.6032e+006
8705	2.687e+006
8706	3.8264e+006
8706	2.8111e+006
8707	1.2876e+006
8707	2.4686e+006
8708	1.2883e+006
8708	7.8267e+005
8709	4.9805e+006
8709	5.3222e+006
8710	2.2229e+006
8710	2.0858e+006
8711	0.
8711	0.
8712	4.3007e+006
8712	3.919e+006
8713	6.7636e+005
8713	6.6949e+005
8714	4.0541e+005
8714	2.1496e+006
8715	0.
8715	0.
8716	0.
8716	0.
8717	6.0614e+005
8717	1.0026e+006
8718	6.1995e+005
8718	4.5205e+005
8719	2.29e+006
8719	2.934e+006
8720	1.1692e+005
8720	98684
8721	9.0035e+005
8721	1.614e+005
8722	1.3249e+006
8722	1.3792e+006
8723	9.2736e+005
8723	1.5281e+006
8724	7.075e+005
8724	3.6501e+005
8725	3.0885e+005
8725	5.2608e+005
8726	0.
8726	0.
8727	0.
8727	0.
8728	0.
8728	0.
8729	0.
8729	0.
8730	0.
8730	0.
8731	0.
8731	0.
8732	0.
8732	0.
8733	0.
8733	0.
8734	0.
8734	0.
8735	0.
8735	0.
8736	0.
8736	0.
8737	0.
8737	0.
8738	0.
8738	0.
8739	0.
8739	0.
8740	0.
8740	0.
8741	0.
8741	0.
8742	0.
8742	0.
8743	0.
8743	0.
8744	0.
8744	0.
8745	0.
8745	0.
8746	0.
8746	0.
8747	0.
8747	0.
8748	0.
8748	0.
8749	0.
8749	0.
8750	0.
8750	0.
8751	0.
8751	0.
8752	0.
8752	0.
8753	0.
8753	0.
8754	0.
8754	0.
8755	0.
8755	0.
8756	0.
8756	0.
8757	0.
8757	0.
8758	0.
8758	0.
8759	0.
8759	0.
8760	0.
8760	0.
8761	0.
8761	0.
8762	0.
8762	0.
8763	0.
8763	0.
8764	0.
8764	0.
8765	0.
8765	0.
8766	0.
8766	0.
8767	0.
8767	0.
8768	0.
8768	0.
8769	0.
8769	0.
8770	0.
8770	0.
8771	0.
8771	0.
8772	0.
8772	0.
8773	0.
8773	0.
8774	0.
8774	0.
8775	0.
8775	0.
8776	0.
8776	0.
8777	0.
8777	0.
8778	0.
8778	0.
8779	0.
8779	0.
8780	0.
8780	0.
8781	0.
8781	0.
8782	0.
8782	0.
8783	0.
8783	0.
8784	0.
8784	0.
8785	0.
8785	0.
8786	0.
8786	0.
8787	0.
8787	0.
8788	0.
8788	0.
8789	0.
8789	0.
8790	0.
8790	0.
8791	0.
8791	0.
8792	0.
8792	0.
8793	0.
8793	0.
8794	0.
8794	0.
8795	0.
8795	0.
8796	0.
8796	0.
8797	0.
8797	0.
8798	0.
8798	0.
8799	0.
8799	0.
8800	0.
8800	0.
8801	0.
8801	0.
8802	0.
8802	0.
8803	0.
8803	0.
8804	3.067e+006
8804	2.0574e+006
8805	2.1044e+006
8805	1.1836e+006
8806	1.4151e+006
8806	1.3481e+006
8807	2.9284e+006
8807	1.696e+006
8808	1.5526e+006
8808	1.2814e+006
8809	2.1186e+006
8809	1.9662e+006
8810	1.5562e+006
8810	1.2087e+006
8811	1.6597e+006
8811	1.2224e+006
8812	2.2524e+006
8812	2.2021e+006
8813	1.4656e+006
8813	9.877e+005
8814	1.7088e+006
8814	1.7241e+006
8815	1.7095e+006
8815	1.3387e+006
8816	1.6742e+006
8816	2.8691e+006
8817	1.683e+005
8817	1.0279e+006
8818	1.7797e+006
8818	1.9379e+006
8819	2.8655e+006
8819	3.0937e+006
8820	2.6142e+006
8820	1.5217e+006
8821	1.9844e+006
8821	3.8379e+006
8822	2.5992e+006
8822	2.6531e+006
8823	1.1713e+006
8823	1.1965e+006
8824	3.3548e+006
8824	3.2835e+006
8825	2.5009e+006
8825	2.7574e+006
8826	2.5231e+006
8826	2.1953e+006
8827	1.6999e+006
8827	1.8586e+006
8828	1.1528e+006
8828	1.1953e+006
8829	3.688e+006
8829	3.8019e+006
8830	3.893e+006
8830	3.0386e+006
8831	2.3483e+006
8831	2.1648e+006
8832	1.7274e+006
8832	1.2148e+006
8833	2.2972e+006
8833	2.8016e+006
8834	2.1948e+006
8834	3.6549e+006
8835	2.6436e+006
8835	2.8796e+006
8836	2.7002e+006
8836	2.8423e+006
8837	1.6359e+006
8837	8.9775e+005
8838	9.1373e+005
8838	8.4828e+005
8839	1.2694e+006
8839	1.9524e+006
8840	1.2233e+006
8840	8.2286e+005
8841	9.8109e+005
8841	1.5551e+006
8842	1.7396e+006
8842	4.4631e+005
8843	7.8166e+005
8843	7.4195e+005
8844	3.5186e+006
8844	2.4112e+006
8845	9.4882e+005
8845	1.5663e+006
8846	1.8557e+006
8846	2.2327e+006
8847	3.821e+006
8847	3.1827e+006
8848	3.2068e+006
8848	2.3143e+006
8849	3.2026e+006
8849	3.6207e+006
8850	1.6414e+006
8850	1.1832e+006
8851	1.9065e+006
8851	2.0485e+006
8852	4.9632e+005
8852	1.8237e+006
8853	1.9366e+006
8853	2.8416e+006
8854	2.83e+006
8854	3.5172e+006
8855	1.5109e+006
8855	5.616e+005
8856	1.1682e+006
8856	2.1348e+006
8857	3.3598e+006
8857	2.3971e+006
8858	2.5048e+006
8858	2.862e+006
8859	3.3704e+006
8859	2.9995e+006
8860	2.8497e+006
8860	2.8848e+006
8861	3.323e+006
8861	3.5051e+006
8862	4.1285e+006
8862	3.8635e+006
8863	3.5676e+006
8863	4.2589e+006
8864	2.9644e+006
8864	3.6697e+006
8865	3.8324e+006
8865	5.7977e+006
8866	3.2413e+006
8866	3.0635e+006
8867	5.2517e+006
8867	4.4864e+006
8868	3.0645e+006
8868	2.8093e+006
8869	3.9659e+006
8869	4.5106e+006
8870	3.693e+006
8870	3.4421e+006
8871	5.1617e+006
8871	5.0757e+006
8872	1.6382e+006
8872	1.9836e+006
8873	3.0274e+006
8873	4.2024e+006
8874	2.0362e+006
8874	9.084e+005
8875	5.0089e+006
8875	3.175e+006
8876	3.4554e+006
8876	2.2337e+006
8877	2.8318e+006
8877	2.4181e+006
8878	4.5599e+006
8878	4.6473e+006
8879	5.8195e+006
8879	4.7313e+006
8880	2.7697e+006
8880	3.7673e+006
8881	5.3118e+006
8881	5.9443e+006
8882	2.4244e+006
8882	2.6709e+006
8883	9.9484e+005
8883	7.9812e+005
8884	1.9456e+006
8884	2.4022e+006
8885	1.9898e+006
8885	2.231e+006
8886	8.5256e+005
8886	2.0416e+006
8887	3.4403e+006
8887	2.0113e+006
8888	5.4472e+006
8888	5.1718e+006
8889	2.7528e+006
8889	2.8707e+006
8890	3.7762e+006
8890	4.097e+006
8891	3.0619e+006
8891	4.6453e+006
8892	3.9782e+006
8892	6.0561e+006
8893	4.2993e+006
8893	3.239e+006
8894	3.5507e+006
8894	4.5849e+006
8895	5.2631e+006
8895	4.5344e+006
8896	2.5869e+006
8896	3.4008e+006
8897	4.2671e+006
8897	5.0387e+006
8898	9.4556e+005
8898	9.4326e+005
8899	6.9079e+005
8899	8.4759e+005
8900	1.2471e+006
8900	1.2497e+006
8901	2.1869e+006
8901	2.177e+006
8902	3.4326e+006
8902	4.1894e+006
8903	1.6021e+006
8903	1.8951e+006
8904	1.7076e+006
8904	2.2637e+006
8905	3.646e+006
8905	2.9712e+006
8906	2.969e+006
8906	5.7487e+006
8907	3.7261e+006
8907	4.215e+006
8908	6.1337e+005
8908	6.3091e+005
8909	2.3568e+006
8909	2.2022e+006
8910	6.7719e+005
8910	1.1789e+006
8911	1.9488e+006
8911	2.2541e+006
8912	2.2466e+006
8912	1.0883e+006
8913	1.5174e+006
8913	1.3844e+006
8914	1.5714e+006
8914	7.8628e+005
8915	3.5755e+006
8915	2.2952e+006
8916	9.5739e+005
8916	1.745e+006
8917	1.8207e+006
8917	1.5425e+006
8918	4.5622e+006
8918	4.2758e+006
8919	1.6264e+006
8919	1.1613e+006
8920	4.6648e+006
8920	4.9232e+006
8921	1.1039e+006
8921	6.8925e+005
8922	1.5978e+006
8922	5.4508e+005
8923	2.3678e+006
8923	3.9636e+006
8924	2.3289e+006
8924	2.9594e+006
8925	4.0381e+006
8925	3.474e+006
8926	4.965e+006
8926	3.5383e+006
8927	7.3014e+006
8927	6.58e+006
8928	3.3273e+006
8928	3.4323e+006
8929	1.8763e+006
8929	2.1596e+006
8930	3.9693e+006
8930	3.4293e+006
8931	5.0976e+006
8931	4.7858e+006
8932	4.0619e+006
8932	3.6295e+006
8933	3.3071e+006
8933	4.0605e+006
8934	4.3663e+006
8934	4.5941e+006
8935	5.2825e+006
8935	5.3574e+006
8936	1.837e+006
8936	1.2076e+006
8937	3.2913e+006
8937	3.6081e+006
8938	3.329e+006
8938	2.513e+006
8939	5.3159e+006
8939	5.3234e+006
8940	3.9864e+006
8940	3.8891e+006
8941	5.0882e+006
8941	5.1466e+006
8942	1.6229e+006
8942	1.4299e+006
8943	2.5246e+006
8943	1.8473e+006
8944	1.9768e+006
8944	2.2626e+006
8945	6.7765e+005
8945	1.2205e+006
8946	1.5155e+006
8946	1.5754e+006
8947	1.1411e+006
8947	9.6398e+005
8948	4.1716e+006
8948	4.3511e+006
8949	1.1467e+006
8949	1.2515e+006
8950	4.7178e+006
8950	4.0099e+006
8951	8.7308e+005
8951	1.4247e+006
8952	2.773e+006
8952	2.2033e+006
8953	3.1146e+006
8953	3.4106e+006
8954	3.0505e+006
8954	3.1273e+006
8955	1.7197e+006
8955	1.8315e+006
8956	5.5669e+006
8956	5.815e+006
8957	4.2002e+006
8957	3.5108e+006
8958	3.8608e+006
8958	2.6981e+006
8959	3.9533e+006
8959	3.6162e+006
8960	3.3314e+006
8960	4.7357e+006
8961	4.5801e+006
8961	4.4967e+006
8962	3.5595e+006
8962	3.9599e+006
8963	3.5004e+006
8963	2.7213e+006
8964	3.0957e+006
8964	3.1924e+006
8965	5.8878e+006
8965	4.9808e+006
8966	4.7551e+006
8966	4.1482e+006
8967	5.432e+006
8967	3.5043e+006
8968	2.6494e+006
8968	2.4651e+006
8969	3.5466e+006
8969	3.5667e+006
8970	3.9314e+006
8970	3.8238e+006
8971	4.7777e+006
8971	5.039e+006
8972	2.5055e+006
8972	2.2578e+006
8973	3.3631e+006
8973	3.5477e+006
8974	4.1496e+006
8974	3.7973e+006
8975	3.088e+006
8975	2.629e+006
8976	4.9254e+006
8976	4.5678e+006
8977	2.6903e+006
8977	2.7225e+006
8978	3.2023e+006
8978	3.4063e+006
8979	4.9143e+006
8979	3.327e+006
8980	3.0125e+006
8980	3.6769e+006
8981	3.0305e+006
8981	3.4309e+006
8982	3.3238e+006
8982	4.0908e+006
8983	3.8644e+006
8983	4.4245e+006
8984	3.3613e+006
8984	3.0664e+006
8985	4.7135e+006
8985	4.9349e+006
8986	3.9973e+006
8986	3.7753e+006
8987	4.8005e+006
8987	5.2466e+006
8988	1.3116e+006
8988	1.9689e+006
8989	2.7401e+006
8989	2.5326e+006
8990	3.0064e+006
8990	2.8283e+006
8991	8.7148e+005
8991	1.4474e+006
8992	7.6962e+005
8992	9.7672e+005
8993	1.7166e+006
8993	1.5063e+006
8994	4.9094e+006
8994	3.8961e+006
8995	1.2808e+006
8995	1.3401e+006
8996	1.4763e+006
8996	8.372e+005
8997	3.5281e+006
8997	3.7455e+006
8998	5.0042e+006
8998	3.3835e+006
8999	1.1503e+006
8999	1.7811e+006
9000	9.517e+005
9000	1.3842e+006
9001	1.1713e+006
9001	1.5632e+006
9002	8.5233e+005
9002	8.4049e+005
9003	3.4653e+006
9003	5.7558e+006
9004	3.5588e+006
9004	4.6469e+006
9005	2.4038e+006
9005	3.5968e+006
9006	1.0503e+006
9006	7.6799e+005
9007	2.7505e+006
9007	2.8783e+006
9008	2.5267e+006
9008	4.7213e+006
9009	4.7239e+006
9009	4.9895e+006
9010	3.6919e+006
9010	3.6669e+006
9011	5.2297e+006
9011	5.3508e+006
9012	3.2962e+006
9012	4.3321e+006
9013	3.6563e+006
9013	3.3553e+006
9014	3.5077e+006
9014	4.03e+006
9015	3.2529e+006
9015	3.9838e+006
9016	2.8868e+006
9016	2.4127e+006
9017	2.1044e+006
9017	2.3582e+006
9018	2.5744e+006
9018	2.8413e+006
9019	2.7627e+006
9019	1.0339e+006
9020	3.8847e+006
9020	2.3317e+006
9021	5.5914e+006
9021	3.1261e+006
9022	1.7152e+006
9022	2.1684e+006
9023	3.409e+006
9023	3.6729e+006
9024	2.7119e+006
9024	3.5135e+006
9025	3.4239e+006
9025	4.0311e+006
9026	2.7296e+006
9026	2.4261e+006
9027	4.9658e+006
9027	3.0888e+006
9028	5.5953e+006
9028	5.1061e+006
9029	2.2094e+006
9029	1.9827e+006
9030	4.1885e+006
9030	3.305e+006
9031	1.859e+006
9031	3.4896e+006
9032	2.1722e+006
9032	3.0255e+006
9033	3.5823e+006
9033	4.8106e+006
9034	3.0223e+006
9034	2.4802e+006
9035	4.5794e+006
9035	3.8454e+006
9036	3.6042e+006
9036	3.7123e+006
9037	1.9104e+006
9037	2.355e+006
9038	3.0574e+006
9038	1.8415e+006
9039	3.3944e+006
9039	2.7022e+006
9040	2.8211e+006
9040	2.5216e+006
9041	3.6389e+006
9041	2.5051e+006
9042	3.5321e+006
9042	4.8562e+006
9043	5.3649e+005
9043	5.2013e+005
9044	1.404e+006
9044	8.4717e+005
9045	3.6549e+006
9045	3.1105e+006
9046	7.0717e+005
9046	5.4871e+005
9047	2.1836e+006
9047	9.0441e+005
9048	3.456e+006
9048	4.0444e+006
9049	1.1877e+006
9049	1.3082e+006
9050	1.699e+006
9050	1.8801e+006
9051	2.7962e+005
9051	1.2621e+006
9052	2.5319e+006
9052	1.7423e+006
9053	3.1128e+006
9053	1.5284e+006
9054	2.1075e+006
9054	1.9416e+006
9055	9.7841e+005
9055	7.7378e+005
9056	1.7307e+006
9056	4.9518e+005
9057	1.0348e+006
9057	1.0105e+006
9058	1.8595e+006
9058	2.8861e+006
9059	1.5884e+006
9059	3.6369e+006
9060	3.5681e+006
9060	2.8569e+006
9061	1.3854e+006
9061	1.7762e+006
9062	9.0921e+005
9062	1.6069e+006
9063	1.1147e+006
9063	6.093e+005
9064	3.2868e+006
9064	1.9305e+006
9065	3.2057e+006
9065	3.3186e+006
9066	3.4172e+006
9066	2.3846e+006
9067	1.7902e+006
9067	1.2797e+006
9068	1.1489e+006
9068	1.0227e+006
9069	1.2337e+006
9069	1.0667e+006
9070	3.4467e+006
9070	2.2477e+006
9071	4.4073e+006
9071	3.1386e+006
9072	3.5718e+006
9072	3.4779e+006
9073	1.0156e+006
9073	8.6433e+005
9074	8.7653e+005
9074	1.2339e+006
9075	2.1036e+006
9075	1.6348e+006
9076	6.7555e+005
9076	1.0409e+006
9077	1.8095e+006
9077	1.9048e+006
9078	3.1565e+006
9078	2.5885e+006
9079	2.3783e+006
9079	1.3532e+006
9080	1.6062e+006
9080	1.9655e+006
9081	2.7292e+006
9081	2.4951e+006
9082	1.9756e+006
9082	2.5621e+006
9083	2.0088e+006
9083	1.7943e+006
9084	1.6119e+006
9084	1.4095e+006
9085	2.6124e+006
9085	2.9641e+006
9086	3.3475e+006
9086	2.6539e+006
9087	2.2488e+006
9087	3.3641e+006
9088	5.8007e+006
9088	4.7822e+006
9089	2.7944e+006
9089	3.8057e+006
9090	1.8347e+006
9090	1.9023e+006
9091	9.5122e+005
9091	1.2474e+006
9092	2.8649e+006
9092	2.2815e+006
9093	1.3563e+006
9093	1.8365e+006
9094	1.1882e+006
9094	1.0229e+006
9095	2.5529e+006
9095	2.5613e+006
9096	9.5259e+005
9096	1.0332e+006
9097	3.5699e+005
9097	1.273e+006
9098	1.8864e+006
9098	2.4555e+006
9099	64087
9099	65645
9100	2.0636e+005
9100	1.7441e+005
9101	7.6703e+005
9101	1.1655e+006
9102	7.7246e+005
9102	1.3144e+006
9103	5.5065e+005
9103	1.1271e+005
9104	2.2496e+006
9104	6.8574e+005
9105	2.3208e+006
9105	1.2092e+006
9106	0.
9106	0.
9107	1.4079e+005
9107	2.0182e+005
9108	0.
9108	0.
9109	0.
9109	0.
9110	0.
9110	0.
9111	64730
9111	64932
9112	0.
9112	0.
9113	0.
9113	0.
9114	0.
9114	0.
9115	0.
9115	0.
9116	4.0858e+005
9116	5.678e+005
9117	0.
9117	0.
9118	0.
9118	0.
9119	0.
9119	0.
9120	0.
9120	0.
9121	0.
9121	0.
9122	0.
9122	0.
9123	0.
9123	0.
9124	0.
9124	0.
9125	0.
9125	0.
9126	0.
9126	0.
9127	0.
9127	0.
9128	0.
9128	0.
9129	0.
9129	0.
9130	0.
9130	0.
9131	0.
9131	0.
9132	0.
9132	0.
9133	0.
9133	0.
9134	0.
9134	0.
9135	0.
9135	0.
9136	0.
9136	0.
9137	0.
9137	0.
9138	0.
9138	0.
9139	0.
9139	0.
9140	0.
9140	0.
9141	0.
9141	0.
9142	0.
9142	0.
9143	0.
9143	0.
9144	0.
9144	0.
9145	0.
9145	0.
9146	0.
9146	0.
9147	0.
9147	0.
9148	0.
9148	0.
9149	0.
9149	0.
9150	0.
9150	0.
9151	0.
9151	0.
9152	0.
9152	0.
9153	0.
9153	0.
9154	0.
9154	0.
9155	0.
9155	0.
9156	0.
9156	0.
9157	0.
9157	0.
9158	0.
9158	0.
9159	0.
9159	0.
9160	0.
9160	0.
9161	0.
9161	0.
9162	0.
9162	0.
9163	1.4789e+006
9163	8.075e+005
9164	1.13e+006
9164	1.3142e+006
9165	1.4157e+006
9165	1.4721e+006
9166	1.455e+006
9166	1.6038e+006
9167	1.6118e+006
9167	1.8031e+006
9168	1.8588e+006
9168	1.4425e+006
9169	1.7489e+006
9169	2.4172e+006
9170	3.1841e+006
9170	2.4071e+006
9171	2.2259e+006
9171	1.593e+006
9172	1.3243e+006
9172	1.0155e+006
9173	2.9429e+006
9173	2.4563e+006
9174	1.4443e+006
9174	1.1059e+006
9175	2.0768e+006
9175	1.566e+006
9176	1.7734e+006
9176	7.5677e+005
9177	4.5286e+005
9177	2.1137e+006
9178	7.2031e+005
9178	1.3572e+006
9179	2.011e+006
9179	1.4236e+006
9180	1.9908e+006
9180	1.656e+006
9181	1.219e+006
9181	1.1928e+006
9182	2.0565e+006
9182	1.6943e+006
9183	2.404e+006
9183	3.8721e+006
9184	2.0276e+006
9184	2.0657e+006
9185	1.8167e+006
9185	9.6526e+005
9186	2.1568e+006
9186	1.5037e+006
9187	1.4951e+006
9187	7.9013e+005
9188	8.3249e+005
9188	4.9553e+005
9189	9.8208e+005
9189	9.4362e+005
9190	2.0149e+006
9190	6.6719e+005
9191	1.2129e+006
9191	9.6101e+005
9192	1.0409e+006
9192	4.1687e+005
9193	1.4202e+006
9193	1.1502e+006
9194	1.2304e+006
9194	1.8429e+006
9195	2.0945e+006
9195	1.6769e+006
9196	1.3861e+006
9196	1.7249e+006
9197	1.0794e+006
9197	1.3335e+006
9198	8.8894e+005
9198	9.1723e+005
9199	2.9392e+006
9199	2.0589e+006
9200	2.4131e+006
9200	3.1636e+006
9201	1.5788e+006
9201	2.9038e+006
9202	2.5725e+006
9202	2.3324e+006
9203	2.2807e+006
9203	1.1514e+006
9204	1.7136e+006
9204	1.3084e+006
9205	1.3379e+006
9205	1.2749e+006
9206	1.2376e+006
9206	1.6809e+006
9207	3.1273e+006
9207	2.5775e+006
9208	1.4145e+006
9208	1.4971e+006
9209	1.4342e+006
9209	1.7514e+006
9210	1.4901e+006
9210	1.8317e+006
9211	1.7601e+006
9211	1.4012e+006
9212	2.3522e+006
9212	2.052e+006
9213	2.2289e+006
9213	2.1297e+006
9214	9.5541e+005
9214	3.9963e+005
9215	4.9328e+005
9215	4.1519e+005
9216	1.6427e+006
9216	1.6227e+006
9217	2.1382e+006
9217	2.0634e+006
9218	1.5479e+006
9218	1.3863e+006
9219	6.1354e+005
9219	9.2734e+005
9220	2.9281e+006
9220	2.3867e+006
9221	9.6627e+005
9221	9.5505e+005
9222	2.6036e+006
9222	3.2548e+006
9223	2.2573e+006
9223	2.5767e+006
9224	2.2007e+006
9224	2.122e+006
9225	2.8358e+006
9225	4.5393e+006
9226	1.495e+006
9226	5.1128e+005
9227	1.7562e+006
9227	1.0005e+006
9228	1.0751e+006
9228	2.7348e+005
9229	1.5947e+006
9229	1.2085e+006
9230	1.967e+006
9230	2.1795e+006
9231	2.6019e+006
9231	1.8753e+006
9232	1.0375e+006
9232	1.6307e+006
9233	1.4978e+006
9233	1.1379e+006
9234	1.4828e+006
9234	1.5325e+006
9235	2.8839e+006
9235	3.4092e+006
9236	2.5528e+006
9236	2.6696e+006
9237	1.6762e+006
9237	1.5406e+006
9238	2.1427e+006
9238	2.0382e+006
9239	1.9098e+006
9239	1.7613e+006
9240	2.911e+006
9240	2.5135e+006
9241	2.6621e+006
9241	2.8922e+006
9242	1.3507e+006
9242	2.2832e+006
9243	1.3551e+006
9243	9.5318e+005
9244	1.138e+006
9244	1.2639e+006
9245	1.2189e+006
9245	1.1786e+006
9246	2.4763e+006
9246	3.0938e+006
9247	3.1739e+006
9247	1.6613e+006
9248	2.2938e+006
9248	2.2694e+006
9249	3.502e+006
9249	2.6863e+006
9250	1.9553e+006
9250	1.5855e+006
9251	1.2868e+006
9251	1.0046e+006
9252	4.6632e+006
9252	3.1196e+006
9253	2.7256e+006
9253	2.5967e+006
9254	1.6319e+006
9254	1.79e+006
9255	3.2129e+006
9255	3.2887e+006
9256	2.1631e+006
9256	1.7216e+006
9257	2.0937e+006
9257	8.7016e+005
9258	1.891e+006
9258	2.2476e+006
9259	3.2596e+006
9259	5.2385e+006
9260	3.5552e+006
9260	2.4793e+006
9261	1.6698e+006
9261	7.8738e+005
9262	3.4254e+006
9262	2.9929e+006
9263	2.4187e+006
9263	2.8026e+006
9264	2.7861e+006
9264	2.6311e+006
9265	1.747e+006
9265	1.6692e+006
9266	2.1948e+006
9266	6.1952e+005
9267	1.9096e+006
9267	1.0802e+006
9268	2.6965e+006
9268	2.3216e+006
9269	3.1487e+006
9269	3.9667e+006
9270	2.8264e+006
9270	2.7498e+006
9271	2.7535e+006
9271	2.1871e+006
9272	3.5037e+006
9272	3.424e+006
9273	3.7324e+006
9273	2.6802e+006
9274	2.5458e+006
9274	2.8729e+006
9275	1.9728e+006
9275	2.2908e+006
9276	3.5828e+006
9276	3.3667e+006
9277	2.0602e+006
9277	1.7817e+006
9278	2.9955e+006
9278	2.8057e+006
9279	2.8949e+006
9279	2.5519e+006
9280	1.9759e+006
9280	2.2595e+006
9281	2.7119e+006
9281	2.9113e+006
9282	2.5469e+006
9282	1.7858e+006
9283	1.4373e+006
9283	8.5892e+005
9284	2.8858e+006
9284	4.0284e+006
9285	1.6306e+006
9285	4.3573e+005
9286	1.2729e+006
9286	1.7791e+006
9287	9.9242e+005
9287	1.045e+006
9288	7.5614e+005
9288	1.2028e+006
9289	2.9061e+006
9289	2.3834e+006
9290	1.5447e+006
9290	1.7927e+006
9291	1.7963e+006
9291	1.303e+006
9292	3.2402e+006
9292	3.4175e+006
9293	7.8423e+005
9293	1.1695e+006
9294	1.6077e+006
9294	7.6992e+005
9295	2.6968e+006
9295	1.6822e+006
9296	2.9779e+006
9296	2.8652e+006
9297	1.7205e+006
9297	1.723e+006
9298	3.9605e+006
9298	3.4255e+006
9299	1.7956e+006
9299	5.8795e+005
9300	2.8377e+006
9300	3.6542e+006
9301	3.1887e+006
9301	2.3413e+006
9302	3.7958e+006
9302	2.4424e+006
9303	2.4569e+006
9303	2.3423e+006
9304	1.46e+006
9304	2.2311e+006
9305	2.9847e+006
9305	1.2913e+006
9306	3.6764e+006
9306	9.0707e+005
9307	8.4602e+005
9307	1.3449e+006
9308	3.0164e+006
9308	2.1218e+006
9309	1.9742e+006
9309	9.3504e+005
9310	3.7898e+006
9310	3.467e+006
9311	2.4307e+006
9311	2.3422e+006
9312	3.9074e+006
9312	4.3686e+006
9313	3.6971e+006
9313	2.6967e+006
9314	2.9286e+006
9314	2.9693e+006
9315	6.1027e+005
9315	1.0451e+006
9316	1.3267e+006
9316	2.2695e+006
9317	3.1709e+006
9317	2.3141e+006
9318	2.6419e+006
9318	4.1071e+006
9319	1.9908e+006
9319	1.6656e+006
9320	2.9263e+006
9320	3.3482e+006
9321	1.7419e+006
9321	2.3025e+006
9322	3.3568e+006
9322	3.557e+006
9323	8.5572e+005
9323	7.3392e+005
9324	3.2755e+006
9324	2.5057e+006
9325	1.7813e+006
9325	2.7126e+006
9326	2.2497e+006
9326	3.1843e+006
9327	2.493e+006
9327	3.1383e+006
9328	4.5268e+006
9328	3.2814e+006
9329	3.3223e+006
9329	2.1848e+006
9330	1.8821e+006
9330	2.1394e+006
9331	4.0767e+006
9331	1.8816e+006
9332	1.9796e+006
9332	2.3548e+006
9333	4.0318e+006
9333	2.388e+006
9334	2.3732e+006
9334	2.6336e+006
9335	2.2478e+006
9335	3.2275e+006
9336	1.5087e+006
9336	1.3889e+006
9337	2.0626e+006
9337	1.8078e+006
9338	1.9036e+006
9338	1.7569e+006
9339	2.0541e+006
9339	2.0141e+006
9340	8.9229e+005
9340	1.3289e+006
9341	2.2106e+006
9341	1.7152e+006
9342	1.6852e+006
9342	2.401e+006
9343	8.8584e+005
9343	1.2752e+006
9344	2.9606e+006
9344	3.2457e+006
9345	2.589e+006
9345	2.1855e+006
9346	3.452e+006
9346	2.8192e+006
9347	2.316e+006
9347	2.7846e+006
9348	3.68e+006
9348	2.7305e+006
9349	1.9219e+006
9349	1.9695e+006
9350	1.0144e+006
9350	9.8112e+005
9351	2.6978e+006
9351	3.4652e+006
9352	1.3374e+006
9352	1.4099e+006
9353	1.088e+006
9353	9.548e+005
9354	4.1678e+006
9354	3.3519e+006
9355	1.8153e+006
9355	8.4112e+005
9356	1.6629e+006
9356	1.5394e+006
9357	2.3725e+006
9357	2.0802e+006
9358	3.3402e+006
9358	3.4641e+006
9359	4.1303e+005
9359	9.1963e+005
9360	2.5637e+006
9360	3.0342e+006
9361	2.3864e+006
9361	2.4079e+006
9362	1.6829e+006
9362	1.0521e+006
9363	1.5381e+006
9363	1.1749e+006
9364	8.1539e+005
9364	6.6724e+005
9365	3.0619e+006
9365	2.8291e+006
9366	1.6053e+006
9366	1.8225e+006
9367	1.5846e+006
9367	1.0234e+006
9368	1.4233e+006
9368	1.4806e+006
9369	8.3624e+005
9369	1.0163e+006
9370	1.6539e+006
9370	1.7312e+006
9371	1.4952e+006
9371	1.1263e+006
9372	1.8248e+006
9372	1.3225e+006
9373	1.262e+006
9373	2.374e+006
9374	2.7463e+006
9374	3.4298e+006
9375	2.8041e+006
9375	7.3987e+005
9376	4.2798e+006
9376	2.9703e+006
9377	2.057e+006
9377	3.0572e+006
9378	3.0894e+006
9378	2.2538e+006
9379	2.5487e+006
9379	2.8194e+006
9380	2.3123e+006
9380	3.3122e+006
9381	3.2564e+006
9381	3.7263e+006
9382	1.9536e+006
9382	2.8895e+006
9383	2.5117e+006
9383	2.0018e+006
9384	3.4362e+006
9384	2.8683e+006
9385	3.3458e+006
9385	3.3676e+006
9386	3.1887e+006
9386	2.6519e+006
9387	2.5032e+006
9387	2.7129e+006
9388	1.7838e+006
9388	2.8129e+006
9389	2.2537e+006
9389	2.6831e+006
9390	2.348e+006
9390	2.1046e+006
9391	1.4032e+006
9391	2.7475e+006
9392	2.3461e+006
9392	3.4474e+006
9393	1.2713e+006
9393	1.2631e+006
9394	2.1435e+006
9394	3.4834e+006
9395	1.6606e+006
9395	2.8497e+006
9396	2.3457e+006
9396	2.3142e+006
9397	2.9276e+006
9397	2.3396e+006
9398	1.256e+006
9398	1.3584e+006
9399	1.4409e+006
9399	3.2921e+006
9400	4.5633e+006
9400	5.1677e+006
9401	3.3379e+006
9401	3.9463e+006
9402	4.8306e+006
9402	3.8979e+006
9403	7.274e+005
9403	7.7271e+005
9404	1.9552e+006
9404	1.5766e+006
9405	2.3463e+006
9405	2.1555e+006
9406	2.7577e+006
9406	2.386e+006
9407	2.5622e+006
9407	1.2291e+006
9408	5.4512e+006
9408	4.0903e+006
9409	3.6506e+006
9409	3.1937e+006
9410	1.6157e+006
9410	1.7504e+006
9411	3.6062e+006
9411	4.7675e+006
9412	2.0484e+006
9412	2.1054e+006
9413	1.9061e+006
9413	3.0843e+006
9414	2.0347e+006
9414	2.4924e+006
9415	2.3355e+006
9415	2.815e+006
9416	1.8825e+006
9416	2.4793e+006
9417	1.2943e+006
9417	1.3709e+006
9418	4.7138e+005
9418	1.6103e+006
9419	4.0856e+006
9419	3.1232e+006
9420	3.1068e+006
9420	3.6422e+006
9421	1.992e+006
9421	2.9483e+006
9422	9.4254e+005
9422	1.3222e+006
9423	1.6579e+006
9423	2.7656e+006
9424	2.2825e+006
9424	1.7939e+006
9425	1.5487e+006
9425	5.2706e+005
9426	2.2646e+006
9426	3.1275e+006
9427	3.0523e+006
9427	2.7023e+006
9428	2.4626e+006
9428	1.9295e+006
9429	2.2248e+006
9429	2.7189e+006
9430	1.3614e+006
9430	6.2558e+005
9431	2.6836e+006
9431	1.8702e+006
9432	2.6366e+006
9432	2.8901e+006
9433	1.1932e+006
9433	2.6026e+006
9434	2.8484e+006
9434	2.9727e+006
9435	1.0062e+006
9435	7.9575e+005
9436	1.765e+006
9436	1.8009e+006
9437	4.0345e+005
9437	5.4561e+005
9438	7.6095e+005
9438	8.9594e+005
9439	3.187e+006
9439	3.1258e+006
9440	2.2514e+006
9440	1.0409e+006
9441	1.3702e+006
9441	1.5892e+006
9442	6.7946e+005
9442	6.8158e+005
9443	1.143e+006
9443	9.1322e+005
9444	1.6065e+006
9444	1.7997e+006
9445	7.6293e+005
9445	7.1715e+005
9446	2.8629e+006
9446	3.4572e+006
9447	1.9903e+006
9447	2.7509e+006
9448	1.7287e+006
9448	2.8969e+006
9449	2.0734e+006
9449	1.5016e+006
9450	4.0669e+006
9450	3.3119e+006
9451	2.9385e+006
9451	2.3283e+006
9452	1.9419e+006
9452	2.0646e+006
9453	3.5274e+006
9453	2.8009e+006
9454	3.4194e+006
9454	2.2612e+006
9455	2.894e+006
9455	2.0407e+006
9456	2.8675e+006
9456	2.684e+006
9457	2.0934e+006
9457	2.243e+006
9458	3.7165e+006
9458	2.3631e+006
9459	3.1686e+006
9459	3.201e+006
9460	3.7869e+006
9460	2.7702e+006
9461	3.4954e+006
9461	3.3075e+006
9462	2.5494e+006
9462	2.6702e+006
9463	3.3062e+006
9463	3.9563e+006
9464	1.9322e+006
9464	1.1678e+006
9465	1.7291e+006
9465	3.2309e+006
9466	8.8103e+005
9466	1.6478e+006
9467	2.2632e+006
9467	3.1332e+006
9468	2.3979e+006
9468	2.1088e+006
9469	3.6799e+006
9469	3.2809e+006
9470	2.2722e+006
9470	4.8642e+006
9471	2.3389e+006
9471	1.0631e+006
9472	8.0636e+005
9472	9.0266e+005
9473	2.7376e+006
9473	1.8221e+006
9474	4.1146e+006
9474	4.9187e+006
9475	1.444e+006
9475	1.4267e+006
9476	3.7983e+006
9476	3.2505e+006
9477	1.1491e+006
9477	1.4503e+006
9478	1.5724e+006
9478	1.2435e+006
9479	1.5463e+006
9479	1.9523e+006
9480	1.0843e+006
9480	2.2344e+006
9481	3.0494e+006
9481	3.338e+006
9482	3.9534e+006
9482	3.9163e+006
9483	2.0696e+006
9483	2.4429e+006
9484	1.644e+006
9484	2.6372e+006
9485	2.344e+006
9485	5.118e+006
9486	3.2631e+006
9486	9.2478e+005
9487	2.641e+006
9487	1.4867e+006
9488	1.7136e+006
9488	7.0947e+005
9489	2.0762e+006
9489	1.7317e+006
9490	2.2022e+006
9490	1.1467e+006
9491	1.0184e+006
9491	1.051e+006
9492	3.1814e+006
9492	2.7986e+006
9493	1.36e+006
9493	1.3581e+006
9494	2.7194e+006
9494	3.6483e+006
9495	1.8437e+006
9495	3.8254e+006
9496	2.2251e+006
9496	2.2778e+006
9497	2.3381e+006
9497	4.4443e+006
9498	1.2058e+006
9498	6.7409e+005
9499	2.1915e+006
9499	2.2012e+006
9500	2.365e+006
9500	1.0694e+006
9501	2.6187e+006
9501	2.9987e+006
9502	2.3784e+006
9502	2.1571e+006
9503	7.7677e+005
9503	9.502e+005
9504	6.2978e+005
9504	7.1068e+005
9505	1.3119e+006
9505	1.8491e+006
9506	3.0458e+006
9506	3.4356e+006
9507	3.8964e+006
9507	3.7555e+006
9508	8.5211e+005
9508	7.9826e+005
9509	1.5953e+006
9509	1.5674e+006
9510	1.8876e+006
9510	3.5258e+006
9511	1.8365e+006
9511	1.9086e+006
9512	1.796e+006
9512	3.3955e+006
9513	1.5791e+006
9513	2.7441e+006
9514	1.7376e+006
9514	2.9226e+006
9515	1.7441e+006
9515	1.9693e+006
9516	1.4284e+006
9516	1.6171e+006
9517	1.6439e+006
9517	2.9597e+006
9518	2.8691e+006
9518	2.7876e+006
9519	2.6101e+006
9519	2.5486e+006
9520	4.2182e+006
9520	3.661e+006
9521	1.5695e+006
9521	3.1059e+006
9522	3.1192e+006
9522	3.4787e+006
9523	3.4639e+006
9523	2.2021e+006
9524	2.0895e+006
9524	2.0606e+006
9525	1.0736e+006
9525	1.852e+006
9526	1.7746e+006
9526	3.1102e+006
9527	1.6662e+006
9527	2.0806e+006
9528	2.5799e+006
9528	2.1012e+006
9529	1.1665e+006
9529	1.6905e+006
9530	1.6439e+006
9530	9.9175e+005
9531	1.2623e+006
9531	1.1348e+006
9532	1.3231e+006
9532	2.3769e+006
9533	3.7322e+006
9533	3.0737e+006
9534	4.7402e+006
9534	5.2823e+006
9535	0.
9535	0.
9536	0.
9536	0.
9537	0.
9537	0.
9538	0.
9538	0.
9539	0.
9539	0.
9540	0.
9540	0.
9541	0.
9541	0.
9542	0.
9542	0.
9543	0.
9543	0.
9544	0.
9544	0.
9545	0.
9545	0.
9546	7.3921e+005
9546	1.3701e+006
9547	6.3762e+005
9547	1.5196e+006
9548	0.
9548	0.
9549	0.
9549	0.
9550	0.
9550	0.
9551	0.
9551	0.
9552	0.
9552	0.
9553	0.
9553	0.
9554	0.
9554	0.
9555	0.
9555	0.
9556	0.
9556	0.
9557	0.
9557	0.
9558	0.
9558	0.
9559	0.
9559	0.
9560	0.
9560	0.
9561	0.
9561	0.
9562	0.
9562	0.
9563	0.
9563	0.
9564	0.
9564	0.
9565	0.
9565	0.
9566	0.
9566	0.
9567	0.
9567	0.
9568	0.
9568	0.
9569	2.4702e+005
9569	3.7745e+005
9570	0.
9570	0.
9571	0.
9571	0.
9572	0.
9572	0.
9573	0.
9573	0.
9574	0.
9574	0.
9575	0.
9575	0.
9576	0.
9576	0.
9577	0.
9577	0.
9578	0.
9578	0.
9579	0.
9579	0.
9580	0.
9580	0.
9581	0.
9581	0.
9582	0.
9582	0.
9583	0.
9583	0.
9584	0.
9584	0.
9585	0.
9585	0.
9586	0.
9586	0.
9587	0.
9587	0.
9588	0.
9588	0.
9589	0.
9589	0.
9590	0.
9590	0.
9591	0.
9591	0.
9592	0.
9592	0.
9593	0.
9593	0.
9594	0.
9594	0.
9595	0.
9595	0.
9596	0.
9596	0.
9597	0.
9597	0.
9598	0.
9598	0.
9599	0.
9599	0.
9600	0.
9600	0.
9601	0.
9601	0.
9602	0.
9602	0.
9603	0.
9603	0.
9604	0.
9604	0.
9605	0.
9605	0.
9606	0.
9606	0.
9607	0.
9607	0.
9608	0.
9608	0.
9609	0.
9609	0.
9610	6.6431e+005
9610	1.787e+006
9611	2.6992e+006
9611	1.7384e+006
9612	7.3379e+005
9612	8.2492e+005
9613	1.2097e+006
9613	1.5376e+006
9614	1.4658e+006
9614	8.7583e+005
9615	1.8613e+006
9615	2.9776e+005
9616	1.6909e+006
9616	8.9392e+005
9617	9.947e+005
9617	6.0085e+005
9618	1.6037e+006
9618	9.7772e+005
9619	1.9573e+006
9619	1.1456e+006
9620	1.2692e+006
9620	1.0755e+006
9621	1.7402e+006
9621	1.7641e+006
9622	8.6068e+005
9622	7.424e+005
9623	1.1659e+006
9623	1.2598e+006
9624	1.2518e+006
9624	1.5286e+006
9625	5.2897e+005
9625	7.6087e+005
9626	2.2288e+006
9626	2.9002e+005
9627	1.6044e+006
9627	1.224e+006
9628	1.0648e+006
9628	5.349e+005
9629	1.3908e+006
9629	1.0048e+006
9630	1.1536e+006
9630	9.0109e+005
9631	1.2499e+006
9631	7.07e+005
9632	7.6179e+005
9632	1.197e+006
9633	9.4659e+005
9633	2.0931e+006
9634	1.1861e+006
9634	1.2706e+006
9635	4.9976e+005
9635	1.8143e+006
9636	1.626e+006
9636	1.1345e+006
9637	1.0716e+006
9637	9.5914e+005
9638	1.9181e+005
9638	1.6475e+005
9639	2.485e+005
9639	3.5549e+005
9640	1.9088e+005
9640	2.5304e+005
9641	8.1072e+005
9641	6.7545e+005
9642	9.4858e+005
9642	1.2275e+006
9643	1.765e+006
9643	1.0512e+006
9644	7.0941e+005
9644	1.0224e+006
9645	9.412e+005
9645	7.32e+005
9646	1.4585e+006
9646	1.3903e+006
9647	1.0664e+006
9647	9.2436e+005
9648	1.3796e+006
9648	8.6755e+005
9649	2.375e+006
9649	1.363e+006
9650	1.4233e+006
9650	9.2069e+005
9651	1.6992e+006
9651	8.9866e+005
9652	7.4122e+005
9652	7.3284e+005
9653	9.9656e+005
9653	6.4445e+005
9654	1.2838e+006
9654	1.0465e+006
9655	1.6732e+006
9655	1.9713e+006
9656	1.0471e+006
9656	9.6781e+005
9657	9.6136e+005
9657	8.6867e+005
9658	1.3808e+006
9658	9.7199e+005
9659	8.8768e+005
9659	9.0446e+005
9660	1.6941e+006
9660	1.1586e+006
9661	8.884e+005
9661	1.4228e+006
9662	7.8904e+005
9662	4.5256e+005
9663	1.6515e+006
9663	1.0599e+006
9664	3.2466e+006
9664	4.204e+006
9665	2.1449e+006
9665	3.2422e+006
9666	3.3646e+006
9666	3.8128e+006
9667	4.3285e+006
9667	3.9168e+006
9668	2.4545e+006
9668	1.8457e+006
9669	4.0611e+006
9669	4.0122e+006
9670	2.3211e+006
9670	3.0201e+006
9671	5.6851e+006
9671	5.7154e+006
9672	3.4578e+006
9672	3.9811e+006
9673	2.6297e+006
9673	1.3038e+006
9674	3.0847e+006
9674	2.7733e+006
9675	2.1915e+006
9675	2.2022e+006
9676	2.992e+006
9676	3.8705e+006
9677	1.7216e+006
9677	2.482e+006
9678	3.7215e+006
9678	4.5527e+006
9679	3.5509e+006
9679	4.6454e+006
9680	2.7985e+006
9680	3.3141e+006
9681	2.7558e+006
9681	1.6397e+006
9682	1.147e+006
9682	1.0644e+006
9683	1.6562e+006
9683	1.8225e+006
9684	1.8784e+006
9684	1.759e+006
9685	2.1773e+006
9685	3.0216e+006
9686	3.4093e+006
9686	3.3061e+006
9687	1.2269e+006
9687	1.3019e+006
9688	1.1978e+006
9688	7.4441e+005
9689	9.1105e+005
9689	7.873e+005
9690	1.8678e+006
9690	6.2143e+005
9691	3.1895e+006
9691	1.3034e+006
9692	9.517e+005
9692	8.8657e+005
9693	1.4592e+006
9693	1.3201e+006
9694	2.5172e+006
9694	1.3789e+006
9695	2.9262e+006
9695	3.0322e+006
9696	2.582e+005
9696	8.36e+005
9697	2.1725e+006
9697	9.5274e+005
9698	1.4515e+006
9698	7.91e+005
9699	1.1945e+006
9699	1.3202e+006
9700	1.3514e+006
9700	1.1625e+006
9701	1.9478e+006
9701	9.7679e+005
9702	2.368e+006
9702	1.6938e+006
9703	8.7518e+005
9703	9.0194e+005
9704	1.4841e+006
9704	7.2296e+006
9705	3.5416e+006
9705	4.2442e+006
9706	2.22e+006
9706	3.818e+006
9707	2.5998e+006
9707	4.6659e+006
9708	2.4659e+006
9708	2.9244e+006
9709	2.8105e+006
9709	3.5441e+006
9710	4.0954e+006
9710	4.3733e+006
9711	2.2849e+006
9711	3.1824e+006
9712	2.4183e+006
9712	1.5812e+006
9713	2.2291e+006
9713	2.8739e+006
9714	3.9088e+006
9714	3.6429e+006
9715	2.0681e+006
9715	2.9231e+006
9716	3.4371e+006
9716	2.3027e+006
9717	2.538e+006
9717	3.2495e+006
9718	1.5568e+006
9718	7.1358e+005
9719	3.5283e+006
9719	8.6871e+005
9720	3.2363e+006
9720	3.5096e+006
9721	5.1262e+006
9721	4.8922e+006
9722	5.4415e+006
9722	4.2824e+006
9723	4.8261e+006
9723	4.5952e+006
9724	3.2522e+006
9724	4.4899e+006
9725	3.9772e+006
9725	4.4966e+006
9726	2.6603e+006
9726	1.6453e+006
9727	5.2252e+006
9727	4.9682e+006
9728	3.9718e+006
9728	3.9037e+006
9729	6.4057e+006
9729	7.3965e+006
9730	3.3847e+006
9730	3.9398e+006
9731	2.7783e+006
9731	2.9306e+006
9732	3.1207e+006
9732	4.0312e+006
9733	2.0866e+006
9733	2.0333e+006
9734	3.9809e+006
9734	4.1342e+006
9735	3.1889e+006
9735	3.4468e+006
9736	4.8905e+006
9736	4.124e+006
9737	3.8573e+006
9737	3.9066e+006
9738	3.9483e+006
9738	4.0636e+006
9739	4.1408e+006
9739	4.0113e+006
9740	3.7854e+006
9740	3.2947e+006
9741	3.111e+006
9741	1.8566e+006
9742	5.0589e+006
9742	4.6841e+006
9743	4.0715e+006
9743	6.1929e+006
9744	5.029e+006
9744	4.7931e+006
9745	5.8738e+006
9745	1.713e+006
9746	5.4534e+006
9746	4.2697e+006
9747	5.9172e+006
9747	2.7185e+006
9748	1.1907e+006
9748	8.1396e+005
9749	1.4701e+006
9749	9.1871e+005
9750	2.9235e+006
9750	3.5183e+006
9751	2.645e+006
9751	2.8948e+006
9752	6.6255e+005
9752	8.1987e+005
9753	2.2073e+006
9753	2.2286e+006
9754	3.1703e+006
9754	2.9351e+006
9755	3.3487e+006
9755	4.8797e+006
9756	9.3242e+005
9756	7.8171e+005
9757	2.1954e+006
9757	2.9071e+006
9758	4.0239e+006
9758	3.9413e+006
9759	3.3956e+006
9759	4.0107e+006
9760	3.4445e+006
9760	3.089e+006
9761	1.7544e+006
9761	1.8096e+006
9762	1.7341e+006
9762	1.8808e+006
9763	3.8503e+006
9763	3.8911e+006
9764	1.0761e+006
9764	8.375e+005
9765	7.4751e+005
9765	1.0572e+006
9766	1.5539e+006
9766	1.9352e+006
9767	9.7873e+005
9767	1.0608e+006
9768	1.2997e+006
9768	4.1801e+005
9769	1.5805e+006
9769	1.1061e+006
9770	1.9508e+006
9770	1.8912e+006
9771	1.0977e+006
9771	6.0687e+005
9772	1.5545e+006
9772	8.959e+005
9773	1.4783e+006
9773	1.1648e+006
9774	1.5971e+006
9774	1.469e+006
9775	1.2356e+006
9775	1.8443e+006
9776	3.5812e+006
9776	3.8789e+006
9777	1.404e+006
9777	1.5454e+006
9778	2.8451e+006
9778	3.0838e+006
9779	4.5632e+006
9779	4.9032e+006
9780	2.5774e+006
9780	3.4122e+006
9781	4.7871e+006
9781	3.8759e+006
9782	3.7649e+006
9782	3.3122e+006
9783	2.3628e+006
9783	1.082e+006
9784	2.1544e+006
9784	2.4277e+006
9785	2.6081e+006
9785	3.5799e+006
9786	2.2562e+006
9786	1.894e+006
9787	3.174e+006
9787	2.5131e+006
9788	4.0016e+006
9788	3.1789e+006
9789	3.4928e+006
9789	2.6816e+006
9790	4.3845e+006
9790	4.9944e+006
9791	4.5949e+006
9791	4.3929e+006
9792	5.0026e+006
9792	4.772e+006
9793	5.2246e+006
9793	3.631e+006
9794	3.7708e+006
9794	4.052e+006
9795	3.5647e+006
9795	3.6775e+006
9796	3.5883e+006
9796	4.4116e+006
9797	5.0686e+006
9797	4.9633e+006
9798	2.4128e+006
9798	3.405e+006
9799	3.0249e+006
9799	2.7815e+006
9800	3.8878e+006
9800	4.4732e+006
9801	5.1376e+006
9801	4.7669e+006
9802	6.0167e+006
9802	5.9752e+006
9803	3.8188e+006
9803	4.3981e+006
9804	4.2335e+006
9804	4.9388e+006
9805	3.6617e+006
9805	3.1501e+006
9806	4.4032e+006
9806	5.0179e+006
9807	1.0566e+006
9807	4.4321e+006
9808	2.7561e+006
9808	4.3133e+006
9809	2.477e+006
9809	4.777e+006
9810	2.7399e+006
9810	2.4425e+006
9811	5.2488e+006
9811	3.9898e+006
9812	2.7153e+006
9812	3.5406e+006
9813	2.8249e+006
9813	2.9971e+006
9814	1.1015e+006
9814	1.4611e+006
9815	1.158e+006
9815	1.1377e+006
9816	3.6604e+006
9816	3.6275e+006
9817	1.0616e+006
9817	1.6379e+006
9818	1.5924e+006
9818	2.6766e+006
9819	1.0915e+006
9819	1.0696e+006
9820	2.4225e+006
9820	4.4514e+005
9821	9.0157e+005
9821	7.6501e+005
9822	1.1447e+006
9822	1.3374e+006
9823	2.5525e+006
9823	2.7456e+006
9824	2.4941e+006
9824	1.9506e+006
9825	1.875e+006
9825	1.9139e+006
9826	1.2768e+006
9826	1.5956e+006
9827	1.534e+006
9827	1.6305e+006
9828	1.4128e+006
9828	1.2216e+006
9829	2.5322e+006
9829	2.2032e+006
9830	2.5857e+006
9830	3.6188e+006
9831	5.0499e+006
9831	3.7483e+006
9832	2.7296e+006
9832	2.5632e+006
9833	3.814e+006
9833	4.0259e+006
9834	1.6168e+006
9834	3.5578e+006
9835	4.8955e+006
9835	4.3353e+006
9836	4.4332e+006
9836	4.7003e+006
9837	3.7483e+006
9837	4.2018e+006
9838	2.562e+006
9838	3.6494e+006
9839	2.1021e+006
9839	2.1493e+006
9840	2.3023e+006
9840	2.3785e+006
9841	4.4044e+006
9841	4.3794e+006
9842	3.9147e+006
9842	4.1287e+006
9843	1.3799e+006
9843	3.9841e+006
9844	4.9861e+006
9844	5.6956e+006
9845	4.4057e+006
9845	6.3965e+006
9846	4.8042e+006
9846	3.7542e+006
9847	5.8079e+006
9847	5.524e+006
9848	4.4625e+006
9848	4.3625e+006
9849	6.0805e+006
9849	5.9368e+006
9850	3.8827e+006
9850	4.0463e+006
9851	3.0836e+006
9851	4.0591e+006
9852	4.7768e+006
9852	5.1118e+006
9853	4.1036e+006
9853	4.5793e+006
9854	2.4245e+006
9854	1.7227e+006
9855	2.213e+006
9855	2.6574e+006
9856	2.5602e+006
9856	2.5847e+006
9857	6.0174e+006
9857	5.5876e+006
9858	2.8055e+006
9858	3.2812e+006
9859	3.5969e+006
9859	3.6621e+006
9860	1.4788e+006
9860	1.9607e+006
9861	4.6477e+006
9861	4.6628e+006
9862	4.0288e+006
9862	3.7983e+006
9863	2.0363e+006
9863	2.1896e+006
9864	3.8955e+006
9864	4.4334e+006
9865	4.5978e+006
9865	4.3913e+006
9866	6.0083e+006
9866	6.0455e+006
9867	4.6017e+006
9867	3.7417e+006
9868	4.3199e+006
9868	4.5904e+006
9869	6.6737e+006
9869	7.0479e+006
9870	3.4844e+006
9870	4.8259e+006
9871	3.9197e+006
9871	3.2971e+006
9872	1.8886e+006
9872	2.8934e+006
9873	2.9996e+006
9873	3.1608e+006
9874	2.2962e+006
9874	3.0955e+006
9875	2.0348e+006
9875	1.2198e+006
9876	9.0395e+005
9876	1.8424e+006
9877	2.4052e+006
9877	2.7085e+006
9878	1.7477e+006
9878	1.4207e+006
9879	2.548e+006
9879	2.5933e+006
9880	3.6153e+006
9880	3.5478e+006
9881	4.4552e+006
9881	4.8561e+006
9882	1.3952e+006
9882	2.4047e+006
9883	5.0872e+005
9883	1.3307e+006
9884	8.7199e+005
9884	1.2988e+006
9885	1.2351e+006
9885	1.4032e+006
9886	1.4811e+006
9886	1.2942e+006
9887	1.5708e+006
9887	1.3991e+006
9888	1.0467e+006
9888	1.4915e+006
9889	8.9992e+005
9889	1.1985e+006
9890	2.2041e+006
9890	2.1196e+006
9891	1.3061e+006
9891	1.0595e+006
9892	1.0407e+006
9892	1.4946e+006
9893	2.4281e+006
9893	2.3464e+006
9894	1.2336e+006
9894	1.6995e+006
9895	7.5131e+005
9895	1.0935e+006
9896	2.1364e+006
9896	1.163e+006
9897	1.6482e+006
9897	1.8057e+006
9898	3.2447e+006
9898	3.316e+006
9899	2.0675e+006
9899	1.9165e+006
9900	1.8103e+006
9900	1.4334e+006
9901	4.0706e+006
9901	2.786e+006
9902	2.0747e+006
9902	2.131e+006
9903	1.2871e+006
9903	1.6252e+006
9904	2.922e+006
9904	3.076e+006
9905	1.8048e+006
9905	1.9863e+006
9906	5.3047e+006
9906	5.0865e+006
9907	3.2484e+006
9907	3.4799e+006
9908	2.039e+006
9908	2.4873e+006
9909	1.0034e+006
9909	2.7292e+006
9910	3.9403e+006
9910	3.8987e+006
9911	4.6838e+006
9911	6.4644e+006
9912	3.5226e+006
9912	1.5628e+006
9913	2.3335e+006
9913	1.2986e+006
9914	1.7728e+006
9914	2.6791e+006
9915	3.9509e+006
9915	3.8749e+006
9916	1.8666e+006
9916	3.4727e+006
9917	2.8391e+006
9917	2.2723e+006
9918	3.9182e+006
9918	4.0231e+006
9919	2.0018e+006
9919	2.4875e+006
9920	2.4006e+006
9920	2.8476e+006
9921	3.9107e+006
9921	4.4449e+006
9922	2.6723e+006
9922	3.6199e+006
9923	4.9705e+006
9923	2.618e+006
9924	3.2961e+006
9924	4.9996e+006
9925	5.1777e+006
9925	2.8519e+006
9926	3.1212e+006
9926	3.7612e+006
9927	4.4929e+006
9927	4.6118e+006
9928	3.9294e+006
9928	3.8165e+006
9929	4.1546e+006
9929	4.8029e+006
9930	4.3999e+006
9930	5.9918e+006
9931	4.1659e+006
9931	3.7345e+006
9932	6.2912e+006
9932	5.6292e+006
9933	1.8722e+006
9933	8.6381e+005
9934	3.0373e+006
9934	3.3674e+006
9935	5.0505e+006
9935	5.1685e+006
9936	3.4547e+006
9936	2.6318e+006
9937	2.7243e+006
9937	2.9345e+006
9938	3.9418e+006
9938	3.759e+006
9939	3.945e+006
9939	3.9207e+006
9940	3.1088e+006
9940	2.9086e+006
9941	3.8301e+006
9941	2.1694e+006
9942	4.2909e+006
9942	3.8014e+006
9943	5.2387e+006
9943	5.0148e+006
9944	5.0392e+006
9944	4.2515e+006
9945	1.8556e+006
9945	1.4386e+006
9946	2.2763e+006
9946	2.1527e+006
9947	1.6078e+006
9947	1.6969e+006
9948	2.3986e+006
9948	2.1784e+006
9949	1.3524e+006
9949	1.9431e+006
9950	4.2664e+006
9950	4.2407e+006
9951	3.9901e+006
9951	4.2661e+006
9952	1.5922e+006
9952	1.0545e+006
9953	2.1653e+006
9953	1.5218e+006
9954	8.8572e+005
9954	9.4605e+005
9955	1.4016e+006
9955	1.0803e+006
9956	1.4473e+006
9956	1.8329e+006
9957	1.0564e+006
9957	7.5535e+005
9958	2.0953e+006
9958	8.3269e+005
9959	1.2639e+006
9959	9.1689e+005
9960	6.3257e+005
9960	7.2896e+005
9961	2.8086e+005
9961	8.7586e+005
9962	6.8057e+005
9962	4.856e+005
9963	2.1054e+006
9963	1.2796e+006
9964	1.2445e+006
9964	9.3723e+005
9965	8.6169e+005
9965	1.922e+006
9966	1.2505e+006
9966	9.4989e+005
9967	1.0552e+006
9967	7.5222e+005
9968	1.4441e+006
9968	1.1247e+006
9969	7.4754e+005
9969	1.2546e+005
9970	2.4029e+006
9970	2.0736e+006
9971	1.4606e+006
9971	1.3545e+006
9972	1.8011e+006
9972	1.7573e+006
9973	1.1626e+006
9973	1.21e+006
9974	5.7575e+005
9974	3.8213e+005
9975	1.6957e+006
9975	6.3597e+005
9976	4.6865e+005
9976	3.7604e+005
9977	0.
9977	0.
9978	9.9811e+005
9978	6.1713e+005
9979	5.286e+005
9979	4.8431e+005
9980	9.505e+005
9980	9.6187e+005
9981	0.
9981	0.
9982	0.
9982	0.
9983	1.8125e+006
9983	1.3042e+006
9984	6.113e+005
9984	3.5838e+005
9985	5.702e+005
9985	4.7205e+005
9986	0.
9986	0.
9987	1.5665e+006
9987	1.267e+006
9988	1.368e+006
9988	1.8061e+006
9989	1.9765e+005
9989	5.2769e+005
9990	0.
9990	0.
9991	3.6298e+005
9991	2.8471e+005
9992	7.8817e+005
9992	6.7996e+005
9993	0.
9993	0.
9994	0.
9994	0.
9995	1.1452e+006
9995	9.2841e+005
9996	0.
9996	0.
9997	1.4441e+006
9997	2.2195e+006
9998	2.2425e+006
9998	2.5418e+006
9999	3.6157e+006
9999	2.7424e+006
10000	0.
10000	0.
10001	0.
10001	0.
10002	0.
10002	0.
10003	0.
10003	0.
10004	0.
10004	0.
10005	31103
10005	30984
10006	2.7018e+005
10006	6.3857e+005
10007	0.
10007	0.
10008	0.
10008	0.
10009	0.
10009	0.
10010	0.
10010	0.
10011	0.
10011	0.
10012	0.
10012	0.
10013	0.
10013	0.
10014	0.
10014	0.
10015	0.
10015	0.
10016	0.
10016	0.
10017	0.
10017	0.
10018	0.
10018	0.
10019	0.
10019	0.
10020	0.
10020	0.
10021	0.
10021	0.
10022	0.
10022	0.
10023	0.
10023	0.
10024	0.
10024	0.
10025	0.
10025	0.
10026	0.
10026	0.
10027	0.
10027	0.
10028	0.
10028	0.
10029	0.
10029	0.
10030	0.
10030	0.
10031	0.
10031	0.
10032	0.
10032	0.
10033	0.
10033	0.
10034	0.
10034	0.
10035	0.
10035	0.
10036	0.
10036	0.
10037	0.
10037	0.
10038	0.
10038	0.
10039	0.
10039	0.
10040	0.
10040	0.
10041	0.
10041	0.
10042	0.
10042	0.
10043	0.
10043	0.
10044	0.
10044	0.
10045	0.
10045	0.
10046	0.
10046	0.
10047	0.
10047	0.
10048	0.
10048	0.
10049	0.
10049	0.
10050	0.
10050	0.
10051	0.
10051	0.
10052	0.
10052	0.
10053	0.
10053	0.
10054	0.
10054	0.
10055	0.
10055	0.
10056	0.
10056	0.
10057	0.
10057	0.
10058	0.
10058	0.
10059	0.
10059	0.
10060	0.
10060	0.
10061	0.
10061	0.
10062	0.
10062	0.
10063	0.
10063	0.
10064	0.
10064	0.
10065	0.
10065	0.
10066	0.
10066	0.
10067	0.
10067	0.
10068	0.
10068	0.
10069	0.
10069	0.
10070	0.
10070	0.
10071	0.
10071	0.
10072	0.
10072	0.
10073	0.
10073	0.
10074	0.
10074	0.
10075	1.5029e+005
10075	3.3258e+005
10076	4.4566e+005
10076	5.1354e+005
10077	2.0291e+005
10077	2.0126e+005
10078	2.0452e+005
10078	6.5934e+005
10079	1.2941e+006
10079	8.2694e+005
10080	1.1178e+006
10080	3.95e+005
10081	1.1959e+006
10081	5.2758e+005
10082	9.7669e+005
10082	1.1338e+006
10083	9.8396e+005
10083	1.1252e+006
10084	1.2149e+006
10084	1.2521e+006
10085	1.4328e+006
10085	1.5792e+006
10086	1.0401e+006
10086	6.3352e+005
10087	9.2557e+005
10087	7.6515e+005
10088	1.0618e+006
10088	5.551e+005
10089	7.3285e+005
10089	2.8874e+005
10090	1.0933e+006
10090	5.6483e+005
10091	5.7273e+005
10091	2.6741e+005
10092	8.1136e+005
10092	2.3121e+006
10093	1.6507e+006
10093	3.4354e+006
10094	1.3968e+006
10094	1.5678e+006
10095	5.571e+005
10095	1.9335e+006
10096	2.5481e+006
10096	1.1792e+006
10097	3.855e+006
10097	2.7923e+006
10098	1.8583e+006
10098	1.95e+006
10099	2.137e+006
10099	1.5661e+006
10100	1.2989e+006
10100	2.2607e+006
10101	1.8869e+006
10101	3.6289e+006
10102	1.3698e+006
10102	1.5071e+006
10103	5.8839e+005
10103	2.094e+006
10104	1.2629e+006
10104	1.6187e+006
10105	1.3198e+006
10105	1.1875e+006
10106	5.9086e+005
10106	6.55e+005
10107	1.2907e+006
10107	8.3842e+005
10108	3.009e+005
10108	8.3901e+005
10109	7.0289e+005
10109	7.5058e+005
10110	9.8673e+005
10110	1.0717e+006
10111	1.0887e+006
10111	9.0314e+005
10112	1.432e+006
10112	5.9054e+005
10113	1.8345e+006
10113	2.1708e+006
10114	8.0734e+005
10114	8.6772e+005
10115	7.064e+005
10115	8.1379e+005
10116	1.238e+006
10116	1.3386e+006
10117	1.4464e+006
10117	1.5752e+006
10118	1.8551e+006
10118	1.8643e+006
10119	8.0208e+005
10119	1.3829e+006
10120	1.5642e+006
10120	1.5667e+006
10121	2.1631e+006
10121	2.001e+006
10122	1.8141e+006
10122	1.7464e+006
10123	1.0932e+006
10123	1.1961e+006
10124	1.1394e+006
10124	1.9316e+006
10125	1.507e+006
10125	1.1219e+006
10126	1.3776e+006
10126	1.3775e+006
10127	2.7146e+006
10127	2.4404e+006
10128	1.6559e+006
10128	5.0824e+005
10129	1.7402e+006
10129	6.2957e+005
10130	9.8189e+005
10130	8.4645e+005
10131	2.2576e+006
10131	1.2527e+006
10132	1.6456e+006
10132	9.575e+005
10133	1.0457e+006
10133	1.2029e+006
10134	1.2113e+006
10134	1.2153e+006
10135	8.0707e+005
10135	5.0865e+005
10136	6.2091e+005
10136	7.3034e+005
10137	5.6601e+005
10137	1.2032e+006
10138	9.8558e+005
10138	3.76e+005
10139	9.8047e+005
10139	1.1449e+006
10140	7.469e+005
10140	1.24e+006
10141	6.187e+005
10141	1.0168e+006
10142	9.2978e+005
10142	1.3016e+006
10143	1.4173e+006
10143	1.654e+006
10144	1.6396e+006
10144	1.8182e+006
10145	2.512e+006
10145	2.7999e+006
10146	2.0562e+006
10146	2.1249e+006
10147	1.3376e+006
10147	1.661e+006
10148	2.1602e+006
10148	2.474e+006
10149	2.3906e+006
10149	2.7571e+006
10150	2.1917e+006
10150	3.4506e+006
10151	3.895e+006
10151	2.7287e+006
10152	2.4343e+006
10152	2.249e+006
10153	2.3793e+006
10153	3.9239e+006
10154	2.4498e+006
10154	2.0106e+006
10155	2.5276e+006
10155	2.1619e+006
10156	2.2879e+006
10156	3.0724e+006
10157	2.2186e+006
10157	2.4854e+006
10158	2.483e+006
10158	3.5672e+006
10159	3.6158e+006
10159	3.946e+006
10160	1.8794e+006
10160	2.1428e+006
10161	1.5598e+006
10161	2.0684e+006
10162	3.0393e+006
10162	4.0378e+006
10163	2.3475e+006
10163	2.0773e+006
10164	5.0445e+006
10164	4.0776e+006
10165	4.9248e+006
10165	4.6213e+006
10166	5.0704e+006
10166	5.3725e+006
10167	4.0876e+006
10167	3.5578e+006
10168	5.0737e+006
10168	4.3988e+006
10169	4.759e+006
10169	3.7064e+006
10170	2.0414e+006
10170	1.7039e+006
10171	2.5727e+006
10171	2.2162e+006
10172	3.6936e+006
10172	2.2131e+006
10173	2.6026e+006
10173	1.9722e+006
10174	5.0094e+006
10174	5.3425e+006
10175	8.9051e+006
10175	5.3167e+006
10176	3.5423e+006
10176	4.2562e+006
10177	5.3674e+006
10177	4.2709e+006
10178	2.2963e+006
10178	1.7035e+006
10179	3.9872e+006
10179	3.5862e+006
10180	2.3886e+006
10180	1.454e+006
10181	3.6642e+006
10181	3.4088e+006
10182	4.809e+006
10182	4.5264e+006
10183	2.3764e+006
10183	2.5761e+006
10184	3.6818e+006
10184	3.412e+006
10185	4.399e+006
10185	3.6163e+006
10186	1.0666e+006
10186	1.1603e+006
10187	3.0993e+006
10187	2.52e+006
10188	2.4679e+006
10188	1.9679e+006
10189	2.6529e+006
10189	2.731e+006
10190	4.3732e+006
10190	4.2977e+006
10191	1.5166e+006
10191	2.1462e+006
10192	5.1849e+006
10192	4.8222e+006
10193	6.4531e+006
10193	6.3539e+006
10194	2.7366e+006
10194	2.9708e+006
10195	3.7296e+006
10195	3.099e+006
10196	3.0724e+006
10196	2.9835e+006
10197	4.679e+006
10197	3.8601e+006
10198	2.6321e+006
10198	3.0463e+006
10199	2.1033e+006
10199	1.3452e+006
10200	2.1003e+006
10200	1.9945e+006
10201	2.7379e+006
10201	1.8737e+006
10202	4.4005e+006
10202	3.1964e+006
10203	1.469e+006
10203	2.012e+006
10204	2.476e+006
10204	4.8264e+006
10205	3.1463e+006
10205	2.058e+006
10206	1.2306e+006
10206	9.5184e+005
10207	1.6793e+006
10207	1.5482e+006
10208	5.9969e+006
10208	5.6659e+006
10209	1.5945e+006
10209	1.3518e+006
10210	1.2314e+006
10210	1.5047e+006
10211	3.6917e+006
10211	3.1986e+006
10212	3.7823e+006
10212	4.4556e+006
10213	3.3061e+006
10213	3.4471e+006
10214	6.9329e+006
10214	5.1213e+006
10215	2.4179e+006
10215	1.0067e+006
10216	2.1161e+006
10216	1.8952e+006
10217	4.2745e+006
10217	5.0407e+006
10218	2.8488e+006
10218	2.4605e+006
10219	1.0707e+006
10219	6.3055e+005
10220	1.7374e+006
10220	1.7856e+006
10221	2.4077e+006
10221	1.5352e+006
10222	2.2285e+006
10222	1.696e+006
10223	1.9573e+006
10223	1.5483e+005
10224	4.9447e+006
10224	5.0493e+006
10225	8.421e+005
10225	9.8951e+005
10226	3.2258e+006
10226	2.824e+006
10227	4.4079e+006
10227	2.4414e+006
10228	4.8001e+006
10228	5.3571e+006
10229	5.9822e+006
10229	6.4167e+006
10230	4.9188e+006
10230	4.9623e+006
10231	3.3091e+006
10231	2.4005e+006
10232	3.5442e+006
10232	1.7585e+006
10233	2.6466e+006
10233	1.9674e+006
10234	4.3771e+006
10234	5.2149e+006
10235	4.5776e+006
10235	4.1523e+006
10236	1.8974e+006
10236	1.669e+006
10237	2.1371e+006
10237	2.0476e+006
10238	2.7765e+006
10238	3.7911e+006
10239	3.6826e+006
10239	2.7531e+006
10240	2.6661e+006
10240	2.3114e+006
10241	4.4734e+006
10241	4.3645e+006
10242	5.3398e+006
10242	4.0301e+006
10243	4.0798e+006
10243	6.2691e+006
10244	3.0752e+006
10244	4.7675e+006
10245	2.3815e+006
10245	3.1927e+006
10246	2.9435e+006
10246	4.0049e+006
10247	7.4745e+006
10247	7.6187e+006
10248	2.3571e+006
10248	1.3142e+006
10249	1.8131e+006
10249	1.8833e+006
10250	3.118e+006
10250	4.1963e+006
10251	3.4191e+006
10251	2.2317e+006
10252	6.2662e+006
10252	6.0254e+006
10253	2.5201e+006
10253	3.7535e+006
10254	4.3054e+006
10254	4.314e+006
10255	5.6704e+006
10255	5.926e+006
10256	5.2772e+006
10256	6.0516e+006
10257	1.732e+006
10257	1.8332e+006
10258	4.494e+006
10258	3.2543e+006
10259	3.5474e+006
10259	1.9812e+006
10260	4.0852e+006
10260	4.0581e+006
10261	5.3622e+006
10261	4.8676e+006
10262	4.8774e+006
10262	5.1706e+006
10263	3.2709e+006
10263	2.5633e+006
10264	1.7359e+006
10264	2.3881e+006
10265	3.6054e+006
10265	2.7879e+006
10266	4.7724e+006
10266	4.0926e+006
10267	4.1841e+006
10267	3.7877e+006
10268	5.293e+006
10268	4.4046e+006
10269	3.0022e+006
10269	2.5217e+006
10270	6.9277e+006
10270	1.0489e+007
10271	1.6923e+006
10271	1.6863e+006
10272	9.2394e+005
10272	1.056e+006
10273	1.2078e+006
10273	1.0843e+006
10274	1.902e+006
10274	9.4e+005
10275	3.869e+006
10275	2.5525e+006
10276	4.9428e+006
10276	4.594e+006
10277	3.3719e+006
10277	3.9206e+006
10278	1.5425e+006
10278	1.5443e+006
10279	4.733e+006
10279	4.2863e+006
10280	2.6331e+006
10280	3.3806e+006
10281	1.1729e+006
10281	1.5743e+006
10282	1.6614e+006
10282	1.8388e+006
10283	5.8353e+006
10283	4.8913e+006
10284	5.1667e+006
10284	4.3709e+006
10285	3.6249e+006
10285	2.6713e+006
10286	4.8468e+006
10286	4.2123e+006
10287	3.6296e+006
10287	2.9345e+006
10288	4.084e+006
10288	4.1434e+006
10289	4.2604e+006
10289	4.43e+006
10290	5.7046e+006
10290	6.7777e+006
10291	3.5758e+006
10291	3.2028e+006
10292	6.6918e+006
10292	7.3823e+006
10293	2.8852e+006
10293	4.9982e+006
10294	2.427e+006
10294	2.9359e+006
10295	2.0107e+006
10295	2.1166e+006
10296	3.6431e+006
10296	3.3169e+006
10297	5.7465e+006
10297	5.5856e+006
10298	5.2115e+006
10298	5.8123e+006
10299	4.0124e+006
10299	4.6575e+006
10300	6.2282e+006
10300	5.6127e+006
10301	1.6153e+006
10301	1.5953e+006
10302	4.4225e+006
10302	3.827e+006
10303	1.2975e+006
10303	1.4067e+006
10304	2.8456e+006
10304	2.4691e+006
10305	3.3782e+006
10305	4.2109e+006
10306	5.0503e+006
10306	4.298e+006
10307	4.5957e+006
10307	4.0037e+006
10308	2.1442e+006
10308	2.2178e+006
10309	3.93e+006
10309	4.3324e+006
10310	4.4884e+006
10310	5.1818e+006
10311	6.1299e+006
10311	6.4375e+006
10312	5.0558e+006
10312	4.7753e+006
10313	2.4176e+006
10313	2.1596e+006
10314	3.9787e+006
10314	5.571e+006
10315	9.2437e+006
10315	6.7871e+006
10316	7.9629e+006
10316	6.4488e+006
10317	6.1842e+006
10317	6.2263e+006
10318	3.1011e+006
10318	2.1457e+006
10319	4.3589e+006
10319	4.8646e+006
10320	7.0187e+006
10320	6.7994e+006
10321	4.035e+006
10321	4.6319e+006
10322	5.8024e+006
10322	5.5817e+006
10323	6.2259e+006
10323	5.6619e+006
10324	5.1614e+006
10324	6.3759e+006
10325	3.2354e+006
10325	2.9694e+006
10326	6.4127e+006
10326	5.9433e+006
10327	5.7255e+006
10327	4.7527e+006
10328	6.0543e+006
10328	6.3469e+006
10329	1.808e+006
10329	1.3931e+006
10330	2.8804e+006
10330	2.8363e+006
10331	4.4223e+006
10331	4.1843e+006
10332	2.7373e+006
10332	2.6229e+006
10333	2.1595e+006
10333	1.996e+006
10334	2.9732e+006
10334	2.8316e+006
10335	4.3755e+006
10335	3.1113e+006
10336	1.7313e+006
10336	2.0504e+006
10337	3.3413e+006
10337	2.8596e+006
10338	5.4374e+006
10338	4.5994e+006
10339	1.1283e+006
10339	9.9383e+005
10340	4.3418e+006
10340	5.4361e+006
10341	1.8552e+006
10341	2.2559e+006
10342	1.7483e+006
10342	1.8238e+006
10343	5.2626e+006
10343	4.4688e+006
10344	1.5583e+006
10344	2.0229e+006
10345	1.8813e+006
10345	1.7809e+006
10346	1.4082e+006
10346	1.6639e+006
10347	1.8667e+006
10347	1.4473e+006
10348	2.9139e+006
10348	2.6386e+006
10349	3.7807e+006
10349	2.8616e+006
10350	5.626e+006
10350	6.7427e+006
10351	3.5727e+006
10351	2.5606e+006
10352	4.3317e+006
10352	4.0527e+006
10353	3.6762e+006
10353	3.9549e+006
10354	5.3676e+006
10354	4.1439e+006
10355	5.014e+006
10355	4.4939e+006
10356	5.9038e+006
10356	6.1557e+006
10357	4.0637e+006
10357	4.1332e+006
10358	2.9315e+006
10358	2.6694e+006
10359	4.3896e+006
10359	3.7219e+006
10360	3.6765e+006
10360	3.3046e+006
10361	5.0382e+006
10361	3.7719e+006
10362	4.2031e+006
10362	3.8253e+006
10363	6.0982e+006
10363	5.8377e+006
10364	4.038e+006
10364	3.4782e+006
10365	4.6352e+006
10365	4.1989e+006
10366	3.0022e+006
10366	3.8665e+006
10367	2.4759e+006
10367	4.893e+006
10368	1.609e+006
10368	3.1465e+006
10369	2.5417e+006
10369	3.5579e+006
10370	1.5955e+006
10370	1.6877e+006
10371	3.8141e+006
10371	3.6853e+006
10372	8.3147e+006
10372	6.8415e+006
10373	2.4083e+006
10373	3.1104e+006
10374	3.9437e+006
10374	5.1985e+006
10375	4.2079e+006
10375	5.093e+006
10376	4.3111e+006
10376	4.0403e+006
10377	5.9047e+006
10377	5.6659e+006
10378	2.4128e+006
10378	2.1231e+006
10379	2.4106e+006
10379	6.1639e+006
10380	4.9028e+006
10380	8.55e+006
10381	5.272e+006
10381	5.7415e+006
10382	5.8934e+006
10382	5.6106e+006
10383	4.6296e+006
10383	4.0384e+006
10384	5.9146e+006
10384	6.0549e+006
10385	4.4673e+006
10385	5.34e+006
10386	2.8972e+006
10386	3.1303e+006
10387	3.4045e+006
10387	3.3958e+006
10388	3.5161e+006
10388	4.3576e+006
10389	4.7189e+006
10389	5.4953e+006
10390	5.0989e+006
10390	3.6155e+006
10391	4.612e+006
10391	3.5276e+006
10392	2.2648e+006
10392	1.908e+006
10393	3.5311e+006
10393	3.2725e+006
10394	4.6506e+006
10394	3.6501e+006
10395	3.1839e+006
10395	8.8459e+006
10396	1.1278e+006
10396	2.4715e+006
10397	3.8324e+006
10397	4.3498e+006
10398	5.6885e+006
10398	5.5195e+006
10399	2.0694e+006
10399	1.8018e+006
10400	3.3102e+006
10400	3.3778e+006
10401	2.4242e+006
10401	3.5547e+006
10402	3.7584e+006
10402	3.7845e+006
10403	5.6011e+006
10403	4.7621e+006
10404	2.1509e+006
10404	1.9872e+006
10405	1.1466e+006
10405	1.2876e+006
10406	1.5985e+006
10406	2.3362e+006
10407	4.0972e+006
10407	2.2237e+006
10408	1.4145e+006
10408	4.9011e+006
10409	5.743e+006
10409	6.0436e+006
10410	4.2841e+006
10410	3.9679e+006
10411	2.1692e+006
10411	2.2093e+006
10412	4.9763e+006
10412	4.4889e+006
10413	4.5188e+006
10413	4.7752e+006
10414	3.531e+006
10414	2.7032e+006
10415	4.5883e+006
10415	3.9856e+006
10416	3.484e+006
10416	2.5748e+006
10417	6.7656e+006
10417	6.1176e+006
10418	3.7293e+006
10418	3.5907e+006
10419	5.0564e+006
10419	5.5795e+006
10420	6.0708e+006
10420	5.8452e+006
10421	3.6306e+006
10421	4.1047e+006
10422	2.1841e+006
10422	2.1481e+006
10423	1.8669e+006
10423	2.0936e+006
10424	3.4342e+006
10424	3.6275e+006
10425	2.8303e+006
10425	4.4022e+006
10426	2.8995e+006
10426	3.351e+006
10427	4.7958e+006
10427	5.1949e+006
10428	6.6379e+006
10428	5.5409e+006
10429	4.1064e+006
10429	3.6258e+006
10430	5.3051e+006
10430	5.3323e+006
10431	3.0034e+006
10431	2.2088e+006
10432	2.6795e+006
10432	2.3095e+006
10433	2.1323e+006
10433	1.5851e+006
10434	1.7671e+006
10434	2.0878e+006
10435	2.7676e+006
10435	6.0018e+006
10436	3.2243e+006
10436	2.7841e+006
10437	6.8486e+006
10437	6.6659e+006
10438	3.4577e+006
10438	3.8587e+006
10439	3.1295e+006
10439	3.0245e+006
10440	4.5175e+006
10440	4.7806e+006
10441	4.6058e+006
10441	3.6964e+006
10442	3.0838e+006
10442	2.8365e+006
10443	4.7108e+006
10443	5.2855e+006
10444	3.4468e+006
10444	3.3777e+006
10445	2.6773e+006
10445	2.2977e+006
10446	3.2503e+006
10446	2.2979e+006
10447	2.999e+006
10447	3.5946e+006
10448	2.88e+006
10448	4.4511e+006
10449	3.7308e+006
10449	5.2935e+006
10450	2.4611e+006
10450	3.1687e+006
10451	6.7433e+006
10451	5.5251e+006
10452	8.1291e+005
10452	8.5343e+005
10453	1.4235e+006
10453	1.4236e+006
10454	2.7536e+006
10454	3.2349e+006
10455	2.3224e+006
10455	2.2874e+006
10456	3.4982e+006
10456	3.4507e+006
10457	1.6785e+006
10457	1.6448e+006
10458	2.4034e+006
10458	2.2038e+006
10459	1.8396e+006
10459	1.2193e+006
10460	1.5399e+006
10460	1.2996e+006
10461	2.6101e+006
10461	2.4488e+006
10462	8.423e+005
10462	8.0185e+005
10463	2.4579e+006
10463	2.3826e+006
10464	3.0991e+006
10464	2.7068e+006
10465	3.6787e+005
10465	7.3017e+005
10466	7.791e+005
10466	1.2332e+006
10467	5.9289e+005
10467	7.3808e+005
10468	3.1946e+006
10468	2.6873e+006
10469	0.
10469	0.
10470	2.3687e+006
10470	1.96e+006
10471	8.6706e+005
10471	1.1476e+006
10472	3.3268e+006
10472	2.947e+006
10473	2.6694e+006
10473	2.5499e+006
10474	1.2126e+006
10474	1.027e+006
10475	1.2635e+006
10475	1.0738e+006
10476	2.2422e+006
10476	2.0415e+006
10477	3.4118e+006
10477	3.7349e+006
10478	1.6516e+006
10478	1.6481e+006
10479	0.
10479	0.
10480	0.
10480	0.
10481	6.8471e+005
10481	1.2948e+006
10482	4.3486e+006
10482	6.2997e+006
10483	5.0279e+005
10483	1.3496e+006
10484	3.4049e+006
10484	6.4905e+006
10485	6.6619e+006
10485	1.0051e+007
10486	0.
10486	0.
10487	0.
10487	0.
10488	2.8095e+006
10488	3.1633e+006
10489	1.7737e+006
10489	2.0631e+006
10490	3.5562e+006
10490	3.3788e+006
10491	2.1573e+006
10491	2.4493e+006
10492	0.
10492	0.
10493	0.
10493	0.
10494	0.
10494	0.
10495	0.
10495	0.
10496	0.
10496	0.
10497	0.
10497	0.
10498	0.
10498	0.
10499	0.
10499	0.
10500	0.
10500	0.
10501	0.
10501	0.
10502	0.
10502	0.
10503	0.
10503	0.
10504	0.
10504	0.
10505	0.
10505	0.
10506	0.
10506	0.
10507	0.
10507	0.
10508	0.
10508	0.
10509	0.
10509	0.
10510	0.
10510	0.
10511	0.
10511	0.
10512	0.
10512	0.
10513	0.
10513	0.
10514	0.
10514	0.
10515	0.
10515	0.
10516	0.
10516	0.
10517	0.
10517	0.
10518	0.
10518	0.
10519	0.
10519	0.
10520	0.
10520	0.
10521	0.
10521	0.
10522	0.
10522	0.
10523	0.
10523	0.
10524	0.
10524	0.
10525	0.
10525	0.
10526	0.
10526	0.
10527	0.
10527	0.
10528	0.
10528	0.
10529	0.
10529	0.
10530	0.
10530	0.
10531	0.
10531	0.
10532	0.
10532	0.
10533	0.
10533	0.
10534	0.
10534	0.
10535	0.
10535	0.
10536	0.
10536	0.
10537	0.
10537	0.
10538	0.
10538	0.
10539	0.
10539	0.
10540	0.
10540	0.
10541	0.
10541	0.
10542	0.
10542	0.
10543	0.
10543	0.
10544	0.
10544	0.
10545	0.
10545	0.
10546	0.
10546	0.
10547	0.
10547	0.
10548	0.
10548	0.
10549	0.
10549	0.
10550	0.
10550	0.
10551	0.
10551	0.
10552	0.
10552	0.
10553	0.
10553	0.
10554	0.
10554	0.
10555	0.
10555	0.
10556	0.
10556	0.
10557	0.
10557	0.
10558	0.
10558	0.
10559	0.
10559	0.
10560	0.
10560	0.
10561	0.
10561	0.
10562	0.
10562	0.
10563	0.
10563	0.
10564	0.
10564	0.
10565	0.
10565	0.
10566	0.
10566	0.
10567	0.
10567	0.
10568	0.
10568	0.
10569	0.
10569	0.
10570	0.
10570	0.
10571	0.
10571	0.
10572	0.
10572	0.
10573	0.
10573	0.
10574	0.
10574	0.
10575	1.3998e+005
10575	2.1231e+005
10576	1.7804e+006
10576	1.3412e+006
10577	1.4615e+006
10577	8.2954e+005
10578	2.5933e+006
10578	3.7639e+005
10579	2.167e+006
10579	3.9552e+005
10580	9.5492e+005
10580	1.6879e+006
10581	9.392e+005
10581	1.2733e+006
10582	7.0979e+005
10582	1.3263e+006
10583	8.7991e+005
10583	1.1073e+006
10584	2.1056e+006
10584	5.6948e+005
10585	1.9992e+006
10585	8.4241e+005
10586	2.1818e+006
10586	1.4309e+006
10587	2.3095e+006
10587	6.4471e+005
10588	8.5014e+005
10588	1.3671e+006
10589	9.7388e+005
10589	6.3999e+005
10590	1.0574e+006
10590	1.1069e+006
10591	6.1368e+005
10591	1.5717e+006
10592	1.3785e+006
10592	8.4756e+005
10593	9.4382e+005
10593	4.6168e+005
10594	1.7229e+006
10594	9.4007e+005
10595	2.0438e+006
10595	9.319e+005
10596	2.2798e+006
10596	7.3004e+005
10597	2.2833e+006
10597	6.1272e+005
10598	1.0595e+006
10598	1.4322e+006
10599	1.228e+006
10599	9.548e+005
10600	1.1239e+006
10600	1.3879e+006
10601	1.2506e+006
10601	1.199e+006
10602	1.2236e+006
10602	8.7116e+005
10603	1.749e+006
10603	1.246e+006
10604	1.355e+006
10604	7.5233e+005
10605	1.4732e+006
10605	1.4804e+006
10606	1.7156e+006
10606	1.0514e+006
10607	1.1288e+006
10607	1.2293e+006
10608	1.0091e+006
10608	4.7395e+005
10609	1.0756e+006
10609	9.6766e+005
10610	1.7424e+006
10610	1.1435e+006
10611	1.5516e+006
10611	6.4972e+005
10612	1.2973e+006
10612	1.1514e+006
10613	1.2481e+006
10613	1.7474e+006
10614	8.0031e+005
10614	2.9047e+005
10615	5.8801e+005
10615	1.4832e+006
10616	1.0458e+006
10616	1.6263e+006
10617	1.4233e+006
10617	8.0226e+005
10618	9.8679e+005
10618	1.3398e+006
10619	1.5913e+006
10619	1.0678e+006
10620	1.556e+006
10620	8.9763e+005
10621	2.1564e+006
10621	7.7967e+005
10622	1.5669e+006
10622	1.349e+006
10623	2.2529e+006
10623	1.3972e+006
10624	2.3265e+006
10624	2.7243e+006
10625	1.9635e+006
10625	1.3759e+006
10626	1.0839e+006
10626	1.5276e+006
10627	1.3596e+006
10627	1.9329e+006
10628	3.3184e+006
10628	2.9411e+006
10629	4.0595e+006
10629	3.2454e+006
10630	1.5101e+006
10630	9.3909e+005
10631	2.6996e+006
10631	2.613e+006
10632	1.3392e+006
10632	1.2318e+006
10633	2.3726e+006
10633	2.7187e+006
10634	2.1248e+006
10634	1.9427e+006
10635	2.6875e+006
10635	2.3422e+006
10636	4.3436e+006
10636	3.6818e+006
10637	1.285e+006
10637	4.4752e+005
10638	1.4361e+006
10638	8.7717e+005
10639	2.1279e+006
10639	1.294e+006
10640	1.5771e+006
10640	1.2027e+006
10641	1.7749e+006
10641	3.2813e+006
10642	1.8454e+006
10642	1.204e+006
10643	1.6451e+006
10643	1.6952e+006
10644	1.4651e+006
10644	6.4358e+005
10645	2.7304e+006
10645	1.5838e+006
10646	2.1259e+006
10646	1.3361e+006
10647	2.5938e+006
10647	4.3901e+006
10648	2.7431e+006
10648	1.8656e+006
10649	2.7695e+006
10649	2.792e+006
10650	2.1959e+006
10650	1.5627e+006
10651	2.3526e+006
10651	1.8976e+006
10652	9.3119e+005
10652	1.583e+006
10653	3.3648e+006
10653	2.4551e+006
10654	1.9313e+006
10654	1.431e+006
10655	2.2177e+006
10655	2.3416e+006
10656	3.1212e+006
10656	2.978e+006
10657	2.4497e+006
10657	2.5525e+006
10658	3.4814e+006
10658	3.3285e+006
10659	1.7679e+006
10659	2.1652e+006
10660	2.5326e+006
10660	2.0102e+006
10661	3.3472e+006
10661	3.326e+006
10662	2.5563e+006
10662	2.5838e+006
10663	1.3478e+006
10663	1.66e+006
10664	2.187e+006
10664	1.3235e+006
10665	1.5646e+006
10665	1.98e+006
10666	2.0516e+006
10666	2.9659e+006
10667	1.7575e+006
10667	2.2192e+006
10668	1.3409e+006
10668	4.9307e+005
10669	1.874e+006
10669	2.0478e+006
10670	1.8759e+006
10670	3.0596e+006
10671	1.2652e+006
10671	1.588e+006
10672	1.752e+006
10672	1.8064e+006
10673	3.1753e+006
10673	4.1619e+006
10674	3.3883e+006
10674	3.0476e+006
10675	2.3034e+006
10675	2.5382e+006
10676	2.8201e+006
10676	3.0502e+006
10677	3.4339e+006
10677	2.7506e+006
10678	3.0276e+006
10678	3.5116e+006
10679	1.6691e+006
10679	2.704e+006
10680	4.4797e+006
10680	4.2777e+006
10681	3.7341e+006
10681	4.1142e+006
10682	2.8413e+006
10682	2.708e+006
10683	2.867e+006
10683	3.2388e+006
10684	2.4487e+006
10684	3.2448e+006
10685	1.7756e+006
10685	2.0682e+006
10686	1.8685e+006
10686	2.9378e+006
10687	1.9678e+006
10687	5.7311e+006
10688	2.2642e+006
10688	3.0896e+006
10689	2.235e+006
10689	3.2183e+006
10690	2.1469e+006
10690	2.5233e+006
10691	2.2406e+006
10691	2.8279e+006
10692	2.8086e+006
10692	2.3663e+006
10693	1.5986e+006
10693	3.3865e+006
10694	5.427e+006
10694	4.8285e+006
10695	1.6527e+006
10695	1.1637e+006
10696	2.2619e+006
10696	1.7186e+006
10697	1.8519e+006
10697	1.8238e+006
10698	3.2677e+006
10698	2.6086e+006
10699	1.5944e+006
10699	2.3313e+006
10700	2.2229e+006
10700	2.5116e+006
10701	3.1544e+006
10701	1.9354e+006
10702	1.6909e+006
10702	2.043e+006
10703	7.5091e+005
10703	1.182e+006
10704	1.2783e+006
10704	2.3427e+006
10705	2.9344e+006
10705	3.0066e+006
10706	3.3935e+006
10706	2.9427e+006
10707	2.6218e+006
10707	2.2991e+006
10708	2.3183e+006
10708	2.3502e+006
10709	1.4865e+006
10709	1.0663e+006
10710	3.4681e+006
10710	2.6814e+006
10711	1.366e+006
10711	1.3674e+006
10712	5.0846e+005
10712	5.1323e+005
10713	2.88e+006
10713	2.7316e+006
10714	1.1608e+006
10714	8.8744e+005
10715	1.0887e+006
10715	1.668e+006
10716	2.6e+006
10716	2.2971e+006
10717	2.032e+006
10717	1.5554e+006
10718	4.5123e+006
10718	3.6966e+006
10719	1.0101e+006
10719	1.9213e+006
10720	1.9152e+006
10720	1.6432e+006
10721	2.8536e+006
10721	2.7339e+006
10722	2.0225e+006
10722	1.8239e+006
10723	1.8776e+006
10723	2.0792e+006
10724	1.9077e+006
10724	1.6909e+006
10725	1.0088e+006
10725	1.4543e+006
10726	1.6828e+006
10726	1.1978e+006
10727	3.6181e+006
10727	2.52e+006
10728	2.4988e+006
10728	3.1374e+006
10729	1.7961e+006
10729	2.4072e+006
10730	1.674e+006
10730	2.7323e+006
10731	1.813e+006
10731	2.4576e+006
10732	3.1461e+006
10732	3.1651e+006
10733	3.6807e+006
10733	2.3052e+006
10734	3.1936e+006
10734	2.9993e+006
10735	3.1392e+006
10735	3.249e+006
10736	2.8596e+006
10736	2.7235e+006
10737	8.5227e+005
10737	3.0874e+006
10738	1.7566e+006
10738	2.8015e+006
10739	3.5236e+006
10739	1.7578e+006
10740	3.2452e+006
10740	1.6224e+006
10741	1.3692e+006
10741	3.5968e+006
10742	5.6253e+006
10742	3.684e+006
10743	2.2838e+006
10743	2.1698e+006
10744	2.214e+006
10744	2.2709e+006
10745	4.1483e+006
10745	3.7628e+006
10746	2.7648e+006
10746	2.9988e+006
10747	3.3424e+006
10747	3.1421e+006
10748	2.202e+006
10748	2.4728e+006
10749	2.8388e+006
10749	3.1945e+006
10750	2.1507e+006
10750	2.4636e+006
10751	2.374e+006
10751	1.5156e+006
10752	3.7157e+006
10752	1.5542e+006
10753	2.6458e+006
10753	2.1331e+006
10754	3.7507e+006
10754	3.5225e+006
10755	3.4545e+006
10755	2.101e+006
10756	1.8671e+006
10756	3.7248e+006
10757	1.5825e+006
10757	2.8853e+006
10758	4.8038e+005
10758	2.2859e+006
10759	2.2401e+006
10759	3.8039e+006
10760	3.5123e+006
10760	4.0188e+006
10761	1.5495e+006
10761	3.2429e+006
10762	2.3532e+006
10762	3.6386e+006
10763	2.1125e+006
10763	1.0331e+006
10764	2.2093e+006
10764	1.544e+006
10765	3.0241e+006
10765	2.8828e+006
10766	2.2193e+006
10766	2.9968e+006
10767	2.8509e+006
10767	3.185e+006
10768	2.9322e+006
10768	2.8086e+006
10769	8.3513e+005
10769	2.3657e+006
10770	4.4322e+006
10770	4.0417e+006
10771	1.3721e+006
10771	1.4043e+006
10772	3.2004e+006
10772	3.2408e+006
10773	2.7985e+006
10773	3.2013e+006
10774	1.6365e+006
10774	2.1019e+006
10775	2.1066e+006
10775	2.5441e+006
10776	8.4553e+005
10776	2.5809e+006
10777	1.7602e+006
10777	2.2764e+006
10778	1.6862e+006
10778	1.7729e+006
10779	1.3154e+006
10779	8.3538e+005
10780	2.9793e+006
10780	4.5591e+006
10781	6.9601e+005
10781	9.4778e+005
10782	2.1396e+006
10782	2.3e+006
10783	1.2435e+006
10783	1.1362e+006
10784	2.3092e+006
10784	1.9265e+006
10785	1.4609e+006
10785	1.6893e+006
10786	3.2067e+006
10786	3.1704e+006
10787	1.435e+006
10787	5.8791e+005
10788	1.5056e+006
10788	1.3126e+006
10789	3.4771e+006
10789	3.1017e+006
10790	3.6431e+006
10790	3.6285e+006
10791	2.8999e+006
10791	2.4192e+006
10792	1.04e+006
10792	1.1167e+006
10793	2.9773e+006
10793	1.8385e+006
10794	1.7786e+006
10794	2.1299e+006
10795	1.7316e+006
10795	1.0213e+006
10796	8.3941e+005
10796	1.0995e+006
10797	2.8517e+006
10797	2.7281e+006
10798	9.7131e+005
10798	1.5822e+006
10799	9.5704e+005
10799	1.7379e+006
10800	1.1868e+006
10800	1.1123e+006
10801	6.849e+005
10801	1.2055e+006
10802	7.864e+005
10802	1.1471e+006
10803	1.4101e+006
10803	1.9415e+006
10804	3.2336e+006
10804	4.5975e+006
10805	1.4367e+006
10805	8.0165e+005
10806	3.2111e+006
10806	2.7048e+006
10807	1.8237e+006
10807	1.8656e+006
10808	2.2879e+006
10808	3.2445e+006
10809	3.6835e+006
10809	2.8602e+006
10810	2.5931e+006
10810	2.2278e+006
10811	1.9587e+006
10811	2.4932e+006
10812	3.0712e+006
10812	3.5006e+006
10813	3.6184e+006
10813	3.9506e+006
10814	3.1355e+006
10814	3.3572e+006
10815	4.1806e+006
10815	2.709e+006
10816	1.8482e+006
10816	2.9249e+006
10817	1.7009e+006
10817	3.0091e+006
10818	2.91e+006
10818	2.9875e+006
10819	2.1848e+006
10819	3.5735e+006
10820	2.9219e+006
10820	2.5904e+006
10821	1.3417e+006
10821	1.3914e+006
10822	2.2707e+006
10822	3.5534e+006
10823	1.7624e+006
10823	2.7517e+006
10824	1.6723e+006
10824	1.6516e+006
10825	3.1515e+006
10825	4.2354e+006
10826	2.442e+006
10826	1.7829e+006
10827	2.4166e+006
10827	2.4653e+006
10828	4.2537e+006
10828	4.744e+006
10829	2.8621e+006
10829	2.8168e+006
10830	3.6001e+006
10830	2.3902e+006
10831	1.9211e+006
10831	1.7758e+006
10832	2.1264e+006
10832	1.5554e+006
10833	3.3148e+006
10833	3.4017e+006
10834	1.6262e+006
10834	2.4988e+006
10835	1.4982e+006
10835	1.9247e+006
10836	2.5024e+006
10836	2.8184e+006
10837	2.4541e+006
10837	3.9691e+006
10838	3.0703e+006
10838	5.5225e+006
10839	2.2922e+006
10839	3.9389e+006
10840	3.1544e+006
10840	2.2125e+006
10841	3.229e+006
10841	1.369e+006
10842	3.223e+006
10842	1.9704e+006
10843	2.5973e+006
10843	1.9604e+006
10844	2.5868e+006
10844	2.5899e+006
10845	1.6246e+006
10845	4.2386e+006
10846	5.3405e+006
10846	4.0983e+006
10847	3.9027e+006
10847	4.2714e+006
10848	2.7279e+006
10848	2.1406e+006
10849	1.9904e+006
10849	2.1136e+006
10850	1.9511e+006
10850	1.9103e+006
10851	3.2289e+006
10851	3.8266e+006
10852	3.1213e+006
10852	3.2553e+006
10853	1.6638e+006
10853	2.3744e+006
10854	2.8867e+006
10854	1.9632e+006
10855	1.4514e+006
10855	2.7331e+006
10856	2.2732e+006
10856	2.8413e+006
10857	2.1223e+006
10857	2.0308e+006
10858	7.7769e+005
10858	1.2739e+006
10859	3.2179e+006
10859	3.243e+006
10860	1.3961e+006
10860	1.6183e+006
10861	1.2476e+006
10861	1.1813e+006
10862	3.6134e+006
10862	2.8057e+006
10863	2.1166e+006
10863	2.1323e+006
10864	3.2791e+006
10864	2.6456e+006
10865	1.5034e+006
10865	9.5601e+005
10866	1.8829e+006
10866	1.972e+006
10867	4.6898e+006
10867	3.9387e+006
10868	1.7466e+006
10868	1.1234e+006
10869	1.4036e+006
10869	9.7717e+005
10870	1.4843e+006
10870	1.8959e+006
10871	4.3708e+006
10871	3.7989e+006
10872	1.0089e+006
10872	1.1252e+006
10873	1.6554e+006
10873	1.9755e+006
10874	3.0539e+006
10874	1.8522e+006
10875	4.4049e+006
10875	4.099e+006
10876	4.2931e+006
10876	2.4478e+006
10877	3.1728e+006
10877	3.7947e+006
10878	1.7466e+006
10878	2.9181e+006
10879	1.2108e+006
10879	2.3067e+006
10880	2.1223e+006
10880	1.7973e+006
10881	2.9832e+006
10881	2.4653e+006
10882	2.5524e+006
10882	3.375e+006
10883	1.8592e+006
10883	2.2894e+006
10884	2.8366e+006
10884	2.4668e+006
10885	1.374e+006
10885	3.7691e+006
10886	2.6936e+006
10886	2.1516e+006
10887	2.5689e+006
10887	2.8636e+006
10888	2.6473e+006
10888	2.8758e+006
10889	1.418e+006
10889	1.9938e+006
10890	2.1852e+006
10890	1.8484e+006
10891	3.298e+006
10891	3.2495e+006
10892	1.9339e+006
10892	2.4712e+006
10893	2.7618e+006
10893	7.9247e+005
10894	3.2257e+006
10894	1.6366e+006
10895	2.0562e+006
10895	1.457e+006
10896	3.447e+006
10896	3.6377e+006
10897	2.0578e+006
10897	1.719e+006
10898	2.123e+006
10898	1.9776e+006
10899	2.2208e+006
10899	1.7887e+006
10900	4.1624e+006
10900	3.8881e+006
10901	2.351e+006
10901	2.214e+006
10902	2.0575e+006
10902	3.6713e+006
10903	2.3672e+006
10903	4.7587e+006
10904	1.0711e+006
10904	2.6344e+006
10905	2.8283e+006
10905	3.3133e+006
10906	5.0568e+006
10906	2.1518e+006
10907	4.9256e+006
10907	3.9048e+006
10908	2.4575e+006
10908	2.301e+006
10909	2.1515e+006
10909	1.8153e+006
10910	2.851e+006
10910	3.4123e+006
10911	2.3208e+006
10911	3.549e+006
10912	2.8236e+006
10912	3.2378e+006
10913	2.93e+006
10913	2.8802e+006
10914	3.2616e+006
10914	2.1467e+006
10915	3.2113e+006
10915	2.964e+006
10916	1.914e+006
10916	2.5771e+006
10917	1.8805e+006
10917	2.4423e+006
10918	3.0207e+006
10918	3.019e+006
10919	1.1866e+006
10919	2.9196e+006
10920	2.7902e+006
10920	2.2117e+006
10921	1.8452e+006
10921	2.5082e+006
10922	2.5948e+006
10922	2.1059e+006
10923	2.7002e+006
10923	1.3933e+006
10924	8.4749e+005
10924	3.666e+006
10925	2.3763e+006
10925	2.4903e+006
10926	1.7957e+006
10926	9.4962e+005
10927	2.8602e+006
10927	1.6618e+006
10928	2.9948e+006
10928	3.2142e+006
10929	1.6832e+006
10929	2.0733e+006
10930	1.4995e+006
10930	9.0135e+005
10931	2.0635e+006
10931	1.4145e+006
10932	9.5839e+005
10932	1.8328e+006
10933	2.4249e+006
10933	3.1153e+006
10934	1.1185e+006
10934	8.771e+005
10935	1.7247e+006
10935	2.2342e+006
10936	2.5164e+006
10936	2.6608e+006
10937	2.3486e+006
10937	1.4309e+006
10938	4.9061e+005
10938	2.6622e+005
10939	9.7929e+005
10939	3.3542e+005
10940	0.
10940	0.
10941	1.1809e+006
10941	1.0821e+006
10942	1.0066e+006
10942	6.0555e+005
10943	1.1382e+006
10943	6.7863e+005
10944	0.
10944	0.
10945	1.0269e+006
10945	6.1103e+005
10946	0.
10946	0.
10947	0.
10947	0.
10948	0.
10948	0.
10949	0.
10949	0.
10950	0.
10950	0.
10951	0.
10951	0.
10952	0.
10952	0.
10953	0.
10953	0.
10954	0.
10954	0.
10955	0.
10955	0.
10956	0.
10956	0.
10957	0.
10957	0.
10958	0.
10958	0.
10959	0.
10959	0.
10960	0.
10960	0.
10961	0.
10961	0.
10962	9.7264e+005
10962	1.4513e+006
10963	0.
10963	0.
10964	0.
10964	0.
10965	0.
10965	0.
10966	0.
10966	0.
10967	0.
10967	0.
10968	0.
10968	0.
10969	0.
10969	0.
10970	0.
10970	0.
10971	0.
10971	0.
10972	0.
10972	0.
10973	0.
10973	0.
10974	0.
10974	0.
10975	0.
10975	0.
10976	0.
10976	0.
10977	0.
10977	0.
10978	0.
10978	0.
10979	0.
10979	0.
10980	0.
10980	0.
10981	0.
10981	0.
10982	0.
10982	0.
10983	0.
10983	0.
10984	0.
10984	0.
10985	0.
10985	0.
10986	0.
10986	0.
10987	0.
10987	0.
10988	0.
10988	0.
10989	0.
10989	0.
10990	0.
10990	0.
10991	0.
10991	0.
10992	0.
10992	0.
10993	0.
10993	0.
10994	0.
10994	0.
10995	0.
10995	0.
10996	0.
10996	0.
10997	0.
10997	0.
10998	0.
10998	0.
10999	0.
10999	0.
11000	0.
11000	0.
11001	0.
11001	0.
11002	0.
11002	0.
11003	0.
11003	0.
11004	0.
11004	0.
11005	0.
11005	0.
11006	0.
11006	0.
11007	0.
11007	0.
11008	0.
11008	0.
11009	0.
11009	0.
11010	0.
11010	0.
11011	0.
11011	0.
11012	0.
11012	0.
11013	0.
11013	0.
11014	1.8042e+006
11014	2.1694e+006
11015	1.875e+006
11015	2.2907e+006
11016	1.7774e+006
11016	2.3105e+006
11017	2.0115e+006
11017	4.0099e+006
11018	1.6906e+006
11018	2.0387e+006
11019	9.4058e+005
11019	4.2846e+006
11020	6.2466e+005
11020	2.5754e+006
11021	1.9181e+006
11021	2.9558e+006
11022	9.4982e+005
11022	2.3282e+006
11023	2.2273e+006
11023	6.1235e+005
11024	1.6289e+006
11024	1.7584e+006
11025	2.1811e+006
11025	1.5779e+006
11026	1.3017e+006
11026	1.8802e+006
11027	9.7011e+005
11027	1.1597e+006
11028	1.6304e+006
11028	1.6347e+006
11029	1.1386e+006
11029	4.9396e+005
11030	1.1165e+006
11030	8.4346e+005
11031	1.7678e+006
11031	2.1574e+006
11032	1.6699e+006
11032	1.9281e+006
11033	1.2948e+006
11033	1.8205e+006
11034	1.9089e+006
11034	1.4755e+006
11035	1.8813e+006
11035	1.9146e+006
11036	3.0938e+006
11036	2.1628e+006
11037	1.7755e+006
11037	2.7959e+006
11038	1.5153e+006
11038	1.3757e+006
11039	1.4197e+006
11039	1.0781e+006
11040	9.7118e+005
11040	9.0424e+005
11041	8.1457e+005
11041	1.1524e+006
11042	1.1698e+006
11042	1.1865e+006
11043	8.6349e+005
11043	1.0625e+006
11044	2.6841e+006
11044	8.373e+005
11045	9.8824e+005
11045	8.2447e+005
11046	1.1312e+006
11046	6.835e+005
11047	9.7232e+005
11047	9.4935e+005
11048	1.0544e+006
11048	1.4251e+006
11049	2.4047e+006
11049	1.9104e+006
11050	2.0374e+006
11050	1.3201e+006
11051	1.2644e+006
11051	5.9676e+005
11052	1.56e+006
11052	1.8531e+006
11053	5.9564e+005
11053	5.2162e+005
11054	6.9399e+005
11054	1.4244e+006
11055	1.4566e+006
11055	8.8152e+005
11056	1.5758e+006
11056	9.587e+005
11057	8.2876e+005
11057	9.941e+005
11058	2.0228e+006
11058	3.1545e+006
11059	1.0573e+006
11059	1.1791e+006
11060	8.6855e+005
11060	1.3503e+006
11061	3.1892e+006
11061	2.4884e+006
11062	1.2233e+006
11062	1.9674e+006
11063	1.5056e+006
11063	1.2163e+006
11064	8.7222e+005
11064	3.6755e+005
11065	2.7141e+006
11065	2.4063e+006
11066	1.3818e+006
11066	4.1511e+005
11067	1.1602e+006
11067	8.1142e+005
11068	1.6107e+006
11068	1.0612e+006
11069	2.4235e+006
11069	2.0393e+006
11070	1.4924e+006
11070	1.0646e+006
11071	8.4373e+005
11071	1.1342e+006
11072	1.1208e+006
11072	1.6498e+006
11073	1.5339e+006
11073	5.0903e+005
11074	1.7419e+006
11074	1.6088e+006
11075	4.013e+006
11075	2.8846e+006
11076	1.4207e+006
11076	3.3308e+006
11077	3.8807e+006
11077	3.9177e+006
11078	2.3342e+006
11078	1.1572e+006
11079	3.0677e+006
11079	3.5181e+006
11080	2.494e+006
11080	2.6475e+006
11081	4.1538e+006
11081	3.6868e+006
11082	3.6972e+006
11082	3.1503e+006
11083	3.4678e+006
11083	2.4715e+006
11084	3.0697e+006
11084	3.4539e+006
11085	4.1743e+006
11085	4.7281e+006
11086	4.4859e+006
11086	4.6e+006
11087	3.676e+006
11087	2.8961e+006
11088	4.5597e+006
11088	4.8189e+006
11089	3.9791e+006
11089	2.8847e+006
11090	2.3115e+006
11090	3.7454e+006
11091	3.009e+006
11091	2.1697e+006
11092	3.7195e+006
11092	3.8132e+006
11093	1.2149e+006
11093	1.8696e+006
11094	2.2856e+006
11094	2.709e+006
11095	1.186e+006
11095	1.5688e+006
11096	3.6122e+006
11096	2.8321e+006
11097	1.7078e+006
11097	1.4976e+006
11098	1.0643e+006
11098	1.0665e+006
11099	6.2899e+005
11099	1.958e+006
11100	3.2287e+006
11100	3.8758e+006
11101	3.2453e+006
11101	2.7936e+006
11102	3.6222e+006
11102	3.8189e+006
11103	4.1062e+006
11103	4.8203e+006
11104	2.7561e+006
11104	4.2241e+006
11105	4.9078e+005
11105	6.8222e+005
11106	6.6503e+005
11106	8.9715e+005
11107	1.1232e+006
11107	9.1822e+005
11108	1.0753e+006
11108	1.0229e+006
11109	2.0027e+006
11109	1.7697e+006
11110	1.1607e+006
11110	1.3709e+006
11111	2.4209e+006
11111	2.7466e+006
11112	1.8742e+006
11112	1.7969e+006
11113	1.6742e+006
11113	1.593e+006
11114	2.0884e+006
11114	2.02e+006
11115	9.8089e+005
11115	8.6665e+005
11116	3.9895e+006
11116	3.074e+006
11117	1.0188e+006
11117	8.4929e+005
11118	1.244e+006
11118	1.0197e+006
11119	1.4856e+006
11119	1.2467e+006
11120	4.4743e+005
11120	1.2474e+006
11121	3.7218e+006
11121	3.0734e+006
11122	1.072e+006
11122	8.676e+005
11123	1.4954e+006
11123	1.0607e+006
11124	1.8224e+006
11124	2.1541e+006
11125	8.381e+005
11125	1.6984e+006
11126	1.294e+006
11126	1.5434e+006
11127	1.118e+006
11127	4.9754e+005
11128	3.0419e+006
11128	2.4541e+006
11129	1.9265e+006
11129	7.0724e+005
11130	1.2058e+006
11130	1.3997e+006
11131	7.5217e+005
11131	9.3667e+005
11132	1.7929e+006
11132	1.1481e+006
11133	1.7774e+006
11133	8.9851e+005
11134	1.065e+006
11134	1.3247e+006
11135	2.2232e+006
11135	2.5227e+006
11136	1.0786e+006
11136	4.6228e+005
11137	8.5144e+005
11137	4.9984e+005
11138	3.9726e+006
11138	3.5687e+006
11139	1.6595e+006
11139	2.1323e+006
11140	3.0588e+006
11140	3.2774e+006
11141	1.6906e+006
11141	1.6082e+006
11142	2.44e+006
11142	2.2344e+006
11143	2.9919e+006
11143	1.6271e+006
11144	2.5909e+006
11144	1.8284e+006
11145	2.8629e+006
11145	4.4827e+006
11146	3.7943e+006
11146	4.0968e+006
11147	6.0303e+006
11147	6.7246e+006
11148	2.6991e+006
11148	3.21e+006
11149	4.5702e+006
11149	5.3574e+006
11150	3.8071e+006
11150	2.8369e+006
11151	3.0873e+006
11151	3.3287e+006
11152	4.7764e+006
11152	4.6935e+006
11153	4.3623e+006
11153	3.6435e+006
11154	3.867e+006
11154	4.1267e+006
11155	4.3936e+006
11155	3.668e+006
11156	3.7878e+006
11156	3.7522e+006
11157	3.2933e+006
11157	3.695e+006
11158	3.0903e+006
11158	4.4991e+006
11159	3.5247e+006
11159	4.2347e+006
11160	2.0847e+006
11160	2.1878e+006
11161	3.1986e+006
11161	3.9515e+006
11162	4.3186e+006
11162	2.7796e+006
11163	3.746e+006
11163	4.6266e+006
11164	3.527e+006
11164	2.4936e+006
11165	3.8785e+006
11165	3.9864e+006
11166	1.8346e+006
11166	1.698e+006
11167	2.1784e+006
11167	2.2022e+006
11168	2.9853e+006
11168	3.519e+006
11169	1.3638e+006
11169	1.126e+006
11170	1.5871e+006
11170	2.5923e+006
11171	2.5456e+006
11171	2.4431e+006
11172	2.6808e+006
11172	2.6105e+006
11173	2.9555e+006
11173	3.2912e+006
11174	9.6488e+005
11174	9.5085e+005
11175	3.0347e+006
11175	2.3063e+006
11176	1.1692e+006
11176	9.6765e+005
11177	1.2427e+006
11177	1.8093e+006
11178	1.2038e+006
11178	1.4593e+006
11179	7.8138e+005
11179	4.8904e+005
11180	9.6539e+005
11180	7.9498e+005
11181	1.1659e+006
11181	1.4241e+006
11182	1.6951e+006
11182	2.0974e+006
11183	2.0635e+006
11183	2.8828e+006
11184	1.5372e+006
11184	8.3288e+005
11185	1.3778e+006
11185	1.2039e+006
11186	1.6209e+006
11186	1.5288e+006
11187	1.075e+006
11187	1.1692e+006
11188	8.7036e+005
11188	6.4657e+005
11189	1.2476e+006
11189	1.1545e+006
11190	3.2789e+006
11190	2.9262e+006
11191	1.0503e+006
11191	8.8929e+005
11192	3.235e+006
11192	3.0446e+006
11193	7.1391e+005
11193	7.4676e+005
11194	1.0174e+006
11194	8.2127e+005
11195	8.0813e+005
11195	9.8586e+005
11196	1.3544e+006
11196	8.3327e+005
11197	8.7406e+005
11197	1.2918e+006
11198	4.0031e+006
11198	4.4655e+006
11199	4.0642e+006
11199	3.473e+006
11200	2.316e+006
11200	3.1093e+006
11201	1.624e+006
11201	2.3728e+006
11202	4.0084e+006
11202	4.303e+006
11203	2.4122e+006
11203	3.3599e+006
11204	2.8706e+006
11204	1.8121e+006
11205	3.5162e+006
11205	2.9538e+006
11206	3.9166e+006
11206	3.6174e+006
11207	5.5673e+006
11207	5.7165e+006
11208	4.3288e+006
11208	4.1411e+006
11209	2.4693e+006
11209	3.6322e+006
11210	2.7189e+006
11210	3.9499e+006
11211	3.0477e+006
11211	3.1851e+006
11212	3.7448e+006
11212	5.0973e+006
11213	1.8247e+006
11213	2.3726e+006
11214	3.7444e+006
11214	3.9464e+006
11215	4.0404e+006
11215	1.964e+006
11216	4.3958e+006
11216	3.7096e+006
11217	1.5005e+006
11217	3.8142e+006
11218	3.6572e+006
11218	4.3399e+006
11219	3.1207e+006
11219	4.1655e+006
11220	2.1953e+006
11220	2.6579e+006
11221	1.0257e+006
11221	7.8785e+005
11222	2.5559e+006
11222	3.154e+006
11223	5.0397e+006
11223	4.7488e+006
11224	2.0409e+006
11224	2.0877e+006
11225	4.2253e+006
11225	2.7109e+006
11226	1.5279e+006
11226	9.1019e+005
11227	4.924e+005
11227	6.1819e+005
11228	1.533e+006
11228	9.2781e+005
11229	5.5923e+005
11229	1.0111e+006
11230	1.6011e+006
11230	1.5061e+006
11231	2.4472e+006
11231	2.0349e+006
11232	1.3846e+006
11232	1.1596e+006
11233	1.3303e+006
11233	9.4006e+005
11234	1.0136e+006
11234	1.0074e+006
11235	1.4031e+006
11235	1.7922e+006
11236	1.9684e+006
11236	2.1051e+006
11237	1.3844e+006
11237	1.5952e+006
11238	1.2606e+006
11238	1.3587e+006
11239	1.3228e+006
11239	1.2508e+006
11240	7.7509e+005
11240	8.7744e+005
11241	1.7368e+006
11241	2.3043e+006
11242	7.0177e+005
11242	8.2935e+005
11243	1.0162e+006
11243	4.0703e+005
11244	1.1758e+006
11244	3.2384e+005
11245	1.1623e+006
11245	1.0244e+006
11246	1.6081e+006
11246	2.49e+006
11247	3.2527e+006
11247	2.6721e+006
11248	2.4227e+006
11248	1.5877e+006
11249	2.3562e+006
11249	2.1245e+006
11250	2.6702e+006
11250	3.238e+006
11251	3.1808e+006
11251	3.718e+006
11252	3.2259e+006
11252	3.6348e+006
11253	2.7428e+006
11253	5.6916e+006
11254	3.7631e+006
11254	4.8354e+006
11255	3.7647e+006
11255	4.0395e+006
11256	3.3614e+006
11256	3.2139e+006
11257	3.8756e+006
11257	3.4031e+006
11258	4.2179e+006
11258	4.2838e+006
11259	2.9019e+006
11259	3.6885e+006
11260	2.4953e+006
11260	2.66e+006
11261	1.7443e+006
11261	1.7058e+006
11262	3.5974e+006
11262	3.7951e+006
11263	2.6047e+006
11263	2.3898e+006
11264	1.8736e+006
11264	2.2301e+006
11265	3.516e+006
11265	3.0374e+006
11266	2.3256e+006
11266	5.067e+006
11267	3.3501e+006
11267	4.9998e+006
11268	4.0642e+006
11268	2.6229e+006
11269	3.7591e+006
11269	2.7724e+006
11270	1.8631e+006
11270	1.6198e+006
11271	4.2022e+006
11271	4.2033e+006
11272	2.459e+006
11272	2.4931e+006
11273	3.5526e+006
11273	3.2795e+006
11274	2.5768e+006
11274	1.491e+006
11275	4.1283e+006
11275	3.5149e+006
11276	3.5995e+006
11276	2.3935e+006
11277	3.2199e+006
11277	2.5668e+006
11278	2.2631e+006
11278	9.0834e+005
11279	2.8669e+006
11279	3.031e+006
11280	3.4223e+006
11280	2.8366e+006
11281	1.5097e+006
11281	2.6038e+006
11282	3.007e+006
11282	1.783e+006
11283	1.8152e+006
11283	2.7394e+006
11284	1.6943e+006
11284	2.9113e+006
11285	3.3058e+006
11285	4.2378e+006
11286	9.435e+005
11286	9.6969e+005
11287	2.163e+006
11287	1.3651e+006
11288	1.5614e+006
11288	7.1719e+005
11289	2.2966e+006
11289	6.7383e+005
11290	1.2099e+006
11290	1.2804e+006
11291	9.9616e+005
11291	7.4103e+005
11292	2.139e+006
11292	5.4372e+005
11293	6.3393e+005
11293	1.0563e+006
11294	8.4436e+005
11294	5.4637e+005
11295	1.6846e+006
11295	1.1479e+006
11296	1.5871e+006
11296	1.8705e+006
11297	1.0873e+006
11297	1.1271e+006
11298	1.0454e+006
11298	8.9349e+005
11299	1.4338e+006
11299	1.1808e+006
11300	1.5596e+006
11300	2.2376e+006
11301	1.028e+006
11301	7.4384e+005
11302	9.5001e+005
11302	9.22e+005
11303	1.3309e+006
11303	2.1312e+006
11304	1.0611e+006
11304	2.1098e+006
11305	8.4828e+005
11305	2.1128e+006
11306	7.8575e+005
11306	1.561e+006
11307	1.8778e+006
11307	2.6323e+006
11308	2.4196e+006
11308	1.9148e+006
11309	1.6193e+006
11309	2.491e+006
11310	2.4931e+006
11310	2.222e+006
11311	1.927e+006
11311	1.3354e+006
11312	1.6013e+006
11312	1.4883e+006
11313	2.6894e+006
11313	2.0735e+006
11314	3.3161e+006
11314	3.4075e+006
11315	1.8745e+006
11315	1.8989e+006
11316	2.1808e+006
11316	2.2872e+006
11317	3.5379e+006
11317	3.0691e+006
11318	2.1321e+006
11318	2.5251e+006
11319	1.6551e+006
11319	1.9396e+006
11320	3.474e+006
11320	2.5535e+006
11321	5.9153e+005
11321	1.5745e+006
11322	2.4705e+006
11322	3.2559e+006
11323	2.3033e+006
11323	2.1194e+006
11324	2.9204e+006
11324	1.9425e+006
11325	1.3485e+006
11325	1.4394e+006
11326	2.5536e+006
11326	1.4579e+006
11327	1.8097e+006
11327	1.8828e+006
11328	8.3226e+005
11328	1.2645e+006
11329	3.3264e+006
11329	3.3798e+006
11330	1.3701e+006
11330	2.0844e+006
11331	1.9052e+006
11331	1.4906e+006
11332	1.2128e+006
11332	1.5823e+006
11333	1.8788e+006
11333	1.0429e+006
11334	1.943e+006
11334	1.4987e+006
11335	7.6557e+005
11335	8.384e+005
11336	1.4589e+006
11336	5.0087e+005
11337	1.7282e+006
11337	2.0016e+006
11338	4.4884e+005
11338	1.8824e+006
11339	1.8189e+006
11339	1.7331e+006
11340	0.
11340	0.
11341	0.
11341	0.
11342	0.
11342	0.
11343	0.
11343	0.
11344	0.
11344	0.
11345	0.
11345	0.
11346	0.
11346	0.
11347	0.
11347	0.
11348	28457
11348	26956
11349	0.
11349	0.
11350	0.
11350	0.
11351	0.
11351	0.
11352	0.
11352	0.
11353	0.
11353	0.
11354	0.
11354	0.
11355	0.
11355	0.
11356	0.
11356	0.
11357	0.
11357	0.
11358	0.
11358	0.
11359	0.
11359	0.
11360	0.
11360	0.
11361	0.
11361	0.
11362	0.
11362	0.
11363	0.
11363	0.
11364	0.
11364	0.
11365	0.
11365	0.
11366	0.
11366	0.
11367	0.
11367	0.
11368	0.
11368	0.
11369	0.
11369	0.
11370	0.
11370	0.
11371	0.
11371	0.
11372	0.
11372	0.
11373	0.
11373	0.
11374	0.
11374	0.
11375	0.
11375	0.
11376	0.
11376	0.
11377	0.
11377	0.
11378	0.
11378	0.
11379	0.
11379	0.
11380	0.
11380	0.
11381	0.
11381	0.
11382	0.
11382	0.
11383	0.
11383	0.
11384	0.
11384	0.
11385	0.
11385	0.
11386	0.
11386	0.
11387	0.
11387	0.
11388	0.
11388	0.
11389	0.
11389	0.
11390	0.
11390	0.
11391	3.3432e+006
11391	3.2715e+006
11392	1.6128e+006
11392	1.7117e+006
11393	1.6533e+006
11393	1.7449e+006
11394	2.2444e+006
11394	1.5732e+006
11395	1.2891e+006
11395	1.057e+006
11396	1.646e+006
11396	2.1449e+006
11397	2.0702e+006
11397	2.2583e+006
11398	2.3127e+006
11398	1.743e+006
11399	3.1896e+006
11399	2.4061e+006
11400	1.5314e+006
11400	2.1593e+006
11401	1.6673e+006
11401	1.8552e+006
11402	1.0164e+006
11402	1.906e+006
11403	1.4651e+006
11403	2.1247e+006
11404	2.4985e+006
11404	2.0599e+006
11405	8.6024e+005
11405	5.9026e+005
11406	2.463e+006
11406	2.1725e+006
11407	3.5172e+006
11407	3.3219e+006
11408	2.1587e+006
11408	2.1722e+006
11409	2.9498e+006
11409	2.9605e+006
11410	1.8863e+006
11410	1.8853e+006
11411	3.1621e+006
11411	3.5262e+006
11412	1.8782e+006
11412	2.5228e+006
11413	1.9928e+006
11413	1.772e+006
11414	4.1245e+006
11414	3.6228e+006
11415	1.9404e+006
11415	1.7862e+006
11416	1.5729e+006
11416	1.7804e+006
11417	3.39e+006
11417	3.6562e+006
11418	1.8986e+006
11418	2.1352e+006
11419	3.9606e+006
11419	3.3601e+006
11420	2.4828e+006
11420	2.1822e+006
11421	1.7168e+006
11421	1.6635e+006
11422	2.1561e+006
11422	1.8194e+006
11423	9.7967e+005
11423	7.9927e+005
11424	3.0511e+006
11424	2.094e+006
11425	2.148e+006
11425	1.7695e+006
11426	2.7357e+006
11426	2.8416e+006
11427	3.9173e+006
11427	3.8697e+006
11428	3.0034e+006
11428	2.6998e+006
11429	2.6558e+006
11429	2.4019e+006
11430	4.0803e+006
11430	3.3382e+006
11431	1.7103e+006
11431	2.243e+006
11432	1.663e+006
11432	1.007e+006
11433	5.7312e+005
11433	1.5864e+006
11434	6.4665e+005
11434	9.4532e+005
11435	2.8782e+006
11435	3.6813e+006
11436	1.631e+006
11436	9.4058e+005
11437	3.8896e+006
11437	2.9732e+006
11438	1.0518e+006
11438	1.9801e+006
11439	7.9491e+005
11439	1.9949e+006
11440	1.1169e+006
11440	1.4122e+006
11441	2.3669e+006
11441	3.3821e+006
11442	1.1371e+006
11442	1.4276e+006
11443	1.0851e+006
11443	1.7323e+006
11444	3.0975e+006
11444	4.181e+006
11445	3.2816e+006
11445	3.3404e+006
11446	2.0382e+006
11446	1.5521e+006
11447	3.3821e+006
11447	2.3509e+006
11448	5.2507e+006
11448	4.1625e+006
11449	1.411e+006
11449	1.0458e+006
11450	3.1644e+006
11450	1.3731e+006
11451	2.9051e+006
11451	3.5096e+006
11452	5.5539e+006
11452	4.5832e+006
11453	3.0505e+006
11453	2.7846e+006
11454	4.4735e+006
11454	2.3527e+006
11455	4.393e+006
11455	2.7677e+006
11456	4.3122e+006
11456	2.9417e+006
11457	4.1174e+006
11457	3.1308e+006
11458	2.4398e+006
11458	3.2907e+006
11459	5.1713e+006
11459	3.6493e+006
11460	3.1033e+006
11460	2.9147e+006
11461	4.7623e+006
11461	4.3472e+006
11462	3.0664e+006
11462	5.2496e+006
11463	3.8687e+006
11463	4.7862e+006
11464	2.0877e+006
11464	3.0268e+006
11465	3.8108e+006
11465	3.543e+006
11466	5.3812e+006
11466	3.3824e+006
11467	4.185e+006
11467	5.2861e+006
11468	3.2908e+006
11468	4.2835e+006
11469	4.5161e+006
11469	2.625e+006
11470	3.0212e+006
11470	3.3013e+006
11471	2.856e+006
11471	2.9854e+006
11472	1.7845e+006
11472	2.4149e+006
11473	1.5265e+006
11473	1.0458e+006
11474	3.5668e+006
11474	3.226e+006
11475	5.3948e+006
11475	3.6139e+006
11476	2.7674e+006
11476	2.8903e+006
11477	4.3896e+006
11477	3.8849e+006
11478	3.2921e+006
11478	3.6416e+006
11479	3.0108e+006
11479	3.6286e+006
11480	1.7213e+006
11480	2.6004e+006
11481	1.0586e+006
11481	1.7062e+006
11482	4.9636e+006
11482	5.0565e+006
11483	3.5449e+006
11483	4.345e+006
11484	3.9397e+006
11484	4.5125e+006
11485	5.7941e+006
11485	4.5968e+006
11486	1.1447e+006
11486	1.2833e+006
11487	2.8946e+006
11487	1.8277e+006
11488	2.6822e+006
11488	4.3716e+006
11489	2.014e+006
11489	2.1008e+006
11490	4.7875e+006
11490	4.2958e+006
11491	2.9537e+006
11491	4.0068e+006
11492	1.6103e+006
11492	1.5968e+006
11493	1.385e+006
11493	3.6098e+005
11494	3.2824e+006
11494	2.3649e+006
11495	2.18e+006
11495	1.2452e+006
11496	1.8594e+006
11496	9.5729e+005
11497	4.4306e+006
11497	2.9006e+006
11498	5.016e+006
11498	3.5421e+006
11499	1.5472e+006
11499	9.2098e+005
11500	4.9518e+006
11500	4.1921e+006
11501	9.2923e+005
11501	6.3037e+005
11502	8.9164e+005
11502	6.8836e+005
11503	5.0904e+006
11503	3.7431e+006
11504	5.8953e+006
11504	5.8467e+006
11505	1.0428e+006
11505	7.7789e+005
11506	4.2988e+006
11506	2.9743e+006
11507	4.9969e+006
11507	5.32e+006
11508	1.4723e+006
11508	2.7385e+006
11509	2.0569e+006
11509	3.404e+006
11510	3.1189e+006
11510	2.9159e+006
11511	5.7772e+005
11511	6.9725e+005
11512	4.7992e+005
11512	6.7767e+005
11513	5.2622e+005
11513	6.7608e+005
11514	4.2762e+006
11514	4.3492e+006
11515	3.1069e+006
11515	3.7304e+006
11516	3.158e+006
11516	3.7862e+006
11517	4.0093e+006
11517	3.8537e+006
11518	6.2435e+006
11518	6.0475e+006
11519	4.6646e+006
11519	3.9145e+006
11520	4.5776e+006
11520	4.1506e+006
11521	2.5568e+006
11521	3.0677e+006
11522	1.7536e+006
11522	1.8036e+006
11523	2.9223e+006
11523	2.7657e+006
11524	2.7782e+006
11524	3.3379e+006
11525	4.0329e+006
11525	4.6725e+006
11526	4.607e+006
11526	3.936e+006
11527	4.1413e+006
11527	3.6998e+006
11528	6.516e+006
11528	6.7423e+006
11529	4.1266e+006
11529	3.7064e+006
11530	2.7478e+006
11530	2.2942e+006
11531	5.021e+006
11531	4.4599e+006
11532	3.978e+006
11532	3.5757e+006
11533	5.3086e+006
11533	5.3549e+006
11534	3.1884e+006
11534	2.3918e+006
11535	4.1093e+006
11535	4.5237e+006
11536	1.1365e+006
11536	2.1454e+006
11537	2.3116e+006
11537	4.5536e+006
11538	3.9922e+006
11538	5.3576e+006
11539	4.3415e+006
11539	5.0362e+006
11540	2.994e+006
11540	2.6665e+006
11541	3.1432e+006
11541	3.4346e+006
11542	5.1737e+006
11542	3.4535e+006
11543	5.2159e+006
11543	5.3321e+006
11544	3.2657e+006
11544	4.8729e+006
11545	3.7534e+006
11545	4.0409e+006
11546	2.4226e+006
11546	1.7947e+006
11547	4.5326e+006
11547	3.2536e+006
11548	2.1333e+006
11548	1.7607e+006
11549	8.5126e+005
11549	7.1809e+005
11550	4.7842e+006
11550	3.8911e+006
11551	1.2216e+006
11551	1.8134e+006
11552	2.5558e+006
11552	2.1556e+006
11553	1.2597e+006
11553	1.5205e+006
11554	2.7303e+006
11554	2.4084e+006
11555	2.8935e+006
11555	3.7986e+006
11556	3.5026e+006
11556	5.2711e+006
11557	2.106e+006
11557	3.1834e+006
11558	3.4577e+006
11558	5.0683e+006
11559	5.0784e+006
11559	3.667e+006
11560	7.8285e+005
11560	1.1623e+006
11561	3.2272e+006
11561	2.6257e+006
11562	1.6481e+006
11562	1.0312e+006
11563	1.4563e+006
11563	1.0142e+006
11564	4.5792e+006
11564	3.4085e+006
11565	1.1961e+006
11565	1.0274e+006
11566	1.5805e+006
11566	1.2006e+006
11567	9.4428e+005
11567	1.4615e+006
11568	1.6176e+006
11568	8.4186e+005
11569	3.1211e+006
11569	1.8764e+006
11570	4.3582e+006
11570	4.1814e+006
11571	4.6893e+006
11571	3.1514e+006
11572	4.2943e+006
11572	3.2421e+006
11573	3.5523e+006
11573	3.424e+006
11574	9.7051e+005
11574	1.5996e+006
11575	2.9743e+006
11575	3.7717e+006
11576	3.0678e+006
11576	3.009e+006
11577	2.8011e+006
11577	1.9638e+006
11578	4.44e+006
11578	3.1863e+006
11579	5.4699e+006
11579	4.3072e+006
11580	1.4815e+006
11580	1.7929e+006
11581	3.6539e+006
11581	5.1318e+006
11582	3.026e+006
11582	3.255e+006
11583	1.2631e+006
11583	2.1114e+006
11584	3.2359e+006
11584	5.007e+006
11585	4.9312e+006
11585	5.3817e+006
11586	4.2661e+006
11586	4.2959e+006
11587	4.0645e+006
11587	3.8532e+006
11588	2.5529e+006
11588	3.9435e+006
11589	3.009e+006
11589	3.5706e+006
11590	3.2802e+006
11590	4.6766e+006
11591	2.9338e+006
11591	2.7085e+006
11592	4.6991e+006
11592	3.6564e+006
11593	3.8382e+006
11593	3.7474e+006
11594	4.1993e+006
11594	3.8147e+006
11595	2.6277e+006
11595	2.6477e+006
11596	2.8368e+006
11596	2.9828e+006
11597	1.5077e+006
11597	1.3181e+006
11598	8.4424e+005
11598	1.0634e+006
11599	2.8278e+006
11599	3.2075e+006
11600	5.568e+006
11600	5.7715e+006
11601	2.2275e+006
11601	2.9989e+006
11602	2.5007e+006
11602	1.963e+006
11603	8.1299e+005
11603	1.6572e+006
11604	1.6782e+006
11604	2.1803e+006
11605	1.3409e+006
11605	1.3535e+006
11606	2.159e+006
11606	1.6088e+006
11607	3.7662e+006
11607	2.4143e+006
11608	4.4702e+006
11608	3.3222e+006
11609	3.0621e+006
11609	2.7818e+006
11610	1.5927e+006
11610	1.2481e+006
11611	2.0275e+006
11611	2.4409e+006
11612	3.5418e+006
11612	3.7047e+006
11613	3.5959e+006
11613	2.0115e+006
11614	1.6378e+006
11614	7.4492e+005
11615	2.3815e+006
11615	2.6078e+006
11616	1.3042e+006
11616	6.614e+005
11617	3.8369e+006
11617	3.8434e+006
11618	3.395e+006
11618	4.856e+006
11619	3.0853e+006
11619	4.1139e+006
11620	1.7247e+006
11620	1.984e+006
11621	9.9945e+005
11621	1.3731e+006
11622	1.1799e+006
11622	1.3036e+006
11623	1.4516e+006
11623	1.1069e+006
11624	3.2709e+006
11624	4.1906e+006
11625	2.6967e+006
11625	3.7509e+006
11626	2.1968e+006
11626	1.7782e+006
11627	3.0585e+006
11627	2.5212e+006
11628	4.2935e+006
11628	4.1518e+006
11629	2.1704e+006
11629	1.2181e+006
11630	4.701e+006
11630	4.2681e+006
11631	8.3754e+005
11631	8.6291e+005
11632	3.2939e+006
11632	3.4158e+006
11633	2.4318e+006
11633	2.0218e+006
11634	3.4534e+006
11634	3.4716e+006
11635	1.2469e+006
11635	1.1548e+006
11636	2.9298e+006
11636	3.7961e+006
11637	4.6669e+006
11637	2.8197e+006
11638	5.8622e+006
11638	7.1222e+006
11639	1.9495e+006
11639	3.1488e+006
11640	5.1678e+006
11640	3.2394e+006
11641	3.0132e+006
11641	2.36e+006
11642	3.8859e+006
11642	4.2847e+006
11643	3.7701e+006
11643	4.6676e+006
11644	6.5312e+006
11644	7.2961e+006
11645	2.3672e+006
11645	2.8237e+006
11646	4.4627e+006
11646	5.0419e+006
11647	2.0278e+006
11647	1.9299e+006
11648	3.4344e+006
11648	2.8145e+006
11649	3.7281e+006
11649	2.6449e+006
11650	1.4957e+006
11650	2.1712e+006
11651	3.8369e+006
11651	2.273e+006
11652	3.4375e+006
11652	4.7136e+006
11653	4.5369e+006
11653	4.1318e+006
11654	2.6104e+006
11654	3.0379e+006
11655	3.8626e+006
11655	4.06e+006
11656	1.4112e+006
11656	2.1628e+006
11657	3.0197e+006
11657	2.4448e+006
11658	3.5918e+006
11658	4.253e+006
11659	2.9683e+006
11659	5.3617e+006
11660	5.775e+005
11660	3.649e+005
11661	2.6669e+006
11661	2.7783e+006
11662	1.1613e+006
11662	1.5083e+006
11663	1.1388e+006
11663	1.5847e+006
11664	2.7543e+006
11664	4.3533e+006
11665	2.4147e+006
11665	2.9447e+006
11666	1.898e+006
11666	5.1877e+005
11667	1.3187e+006
11667	7.1489e+005
11668	2.37e+006
11668	3.5936e+006
11669	2.0059e+006
11669	1.8249e+006
11670	1.8069e+006
11670	2.3601e+006
11671	1.2259e+006
11671	1.8234e+006
11672	3.1338e+006
11672	4.2876e+006
11673	1.8235e+006
11673	2.2931e+006
11674	1.3591e+006
11674	1.0145e+006
11675	3.005e+006
11675	3.3804e+006
11676	1.766e+006
11676	1.5397e+006
11677	3.5482e+006
11677	3.1203e+006
11678	1.4463e+006
11678	1.6173e+006
11679	1.7797e+006
11679	1.9202e+006
11680	2.3363e+006
11680	1.6079e+006
11681	3.4549e+006
11681	2.6464e+006
11682	2.6517e+006
11682	2.8003e+006
11683	3.4419e+006
11683	2.3007e+006
11684	2.0485e+006
11684	1.6545e+006
11685	3.7501e+006
11685	1.792e+006
11686	1.0424e+006
11686	6.1042e+005
11687	1.5788e+006
11687	1.1307e+006
11688	2.1736e+006
11688	1.8276e+006
11689	2.9317e+006
11689	2.3177e+006
11690	3.0815e+006
11690	3.2438e+006
11691	2.7055e+006
11691	1.788e+006
11692	2.4477e+006
11692	2.5847e+006
11693	2.0957e+006
11693	2.784e+006
11694	4.531e+006
11694	4.9096e+006
11695	3.1811e+006
11695	4.4028e+006
11696	3.647e+006
11696	3.7202e+006
11697	3.3962e+006
11697	3.6096e+006
11698	2.2777e+006
11698	2.2882e+006
11699	2.2962e+006
11699	2.3906e+006
11700	1.8657e+006
11700	2.3577e+006
11701	2.825e+006
11701	2.9062e+006
11702	3.4666e+006
11702	3.1946e+006
11703	8.8149e+005
11703	1.1702e+006
11704	4.3432e+005
11704	3.9301e+005
11705	1.7761e+006
11705	1.9721e+006
11706	18328
11706	16487
11707	0.
11707	0.
11708	56163
11708	1.1825e+005
11709	5.2859e+005
11709	3.0167e+005
11710	0.
11710	0.
11711	0.
11711	0.
11712	0.
11712	0.
11713	0.
11713	0.
11714	0.
11714	0.
11715	0.
11715	0.
11716	0.
11716	0.
11717	0.
11717	0.
11718	0.
11718	0.
11719	0.
11719	0.
11720	0.
11720	0.
11721	6829.4
11721	27113
11722	0.
11722	0.
11723	0.
11723	0.
11724	0.
11724	0.
11725	0.
11725	0.
11726	0.
11726	0.
11727	0.
11727	0.
11728	0.
11728	0.
11729	0.
11729	0.
11730	0.
11730	0.
11731	0.
11731	0.
11732	0.
11732	0.
11733	0.
11733	0.
11734	0.
11734	0.
11735	0.
11735	0.
11736	0.
11736	0.
11737	0.
11737	0.
11738	0.
11738	0.
11739	0.
11739	0.
11740	0.
11740	0.
11741	0.
11741	0.
11742	0.
11742	0.
11743	0.
11743	0.
11744	0.
11744	0.
11745	0.
11745	0.
11746	0.
11746	0.
11747	0.
11747	0.
11748	0.
11748	0.
11749	0.
11749	0.
11750	0.
11750	0.
11751	0.
11751	0.
11752	0.
11752	0.
11753	71894
11753	2.4409e+005
11754	0.
11754	0.
11755	0.
11755	0.
11756	0.
11756	0.
11757	0.
11757	0.
11758	0.
11758	0.
11759	0.
11759	0.
11760	0.
11760	0.
11761	0.
11761	0.
11762	0.
11762	0.
11763	0.
11763	0.
11764	0.
11764	0.
11765	0.
11765	0.
11766	0.
11766	0.
11767	0.
11767	0.
11768	0.
11768	0.
11769	0.
11769	0.
11770	0.
11770	0.
11771	2.2915e+006
11771	1.5015e+006
11772	2.4489e+006
11772	1.3693e+006
11773	1.6828e+006
11773	1.395e+006
11774	2.1177e+006
11774	2.3594e+006
11775	1.7044e+006
11775	1.7928e+006
11776	1.6845e+006
11776	1.8297e+006
11777	1.3106e+006
11777	1.3166e+006
11778	7.7551e+005
11778	8.7794e+005
11779	1.5105e+006
11779	1.7729e+006
11780	1.1821e+006
11780	1.7965e+006
11781	3.4781e+006
11781	6.6054e+005
11782	1.0741e+006
11782	9.6222e+005
11783	1.1242e+006
11783	1.2763e+006
11784	8.4935e+005
11784	9.3179e+005
11785	1.1561e+006
11785	1.5035e+006
11786	6.5613e+005
11786	1.5568e+006
11787	2.2079e+006
11787	1.5491e+006
11788	1.0684e+006
11788	9.9493e+005
11789	1.5565e+006
11789	9.653e+005
11790	1.7899e+006
11790	1.5049e+006
11791	1.6607e+006
11791	2.5146e+006
11792	1.4889e+006
11792	1.8772e+006
11793	2.3546e+006
11793	1.2387e+006
11794	1.4738e+006
11794	1.6102e+006
11795	1.0555e+006
11795	1.8046e+006
11796	1.9226e+006
11796	2.088e+006
11797	7.0543e+005
11797	6.3076e+005
11798	5.92e+005
11798	8.0043e+005
11799	3.2936e+005
11799	1.0948e+006
11800	6.6184e+005
11800	1.1657e+006
11801	1.5408e+006
11801	1.6515e+006
11802	1.4863e+006
11802	1.4625e+006
11803	2.9867e+006
11803	1.4126e+006
11804	1.7468e+006
11804	1.794e+006
11805	2.583e+006
11805	2.1825e+006
11806	2.7345e+006
11806	1.6453e+006
11807	1.2271e+006
11807	8.4296e+005
11808	2.587e+006
11808	2.1721e+006
11809	7.9136e+005
11809	1.104e+006
11810	2.5255e+006
11810	1.9407e+006
11811	2.0198e+006
11811	1.691e+006
11812	3.5864e+005
11812	5.5419e+005
11813	1.4113e+006
11813	6.439e+005
11814	1.4171e+006
11814	1.0758e+006
11815	1.204e+006
11815	5.3492e+005
11816	7.1423e+005
11816	4.1609e+005
11817	8.2111e+005
11817	8.6964e+005
11818	5.9623e+005
11818	1.4355e+006
11819	1.5698e+006
11819	1.5771e+006
11820	8.3154e+005
11820	1.7486e+006
11821	8.6912e+005
11821	1.8109e+006
11822	1.7858e+006
11822	2.3818e+006
11823	3.0652e+006
11823	2.2223e+006
11824	3.8743e+005
11824	5.505e+005
11825	1.5828e+006
11825	1.1084e+006
11826	4.0012e+006
11826	4.5295e+006
11827	1.8523e+006
11827	1.283e+006
11828	1.4183e+006
11828	4.7776e+005
11829	9.6194e+005
11829	1.3231e+006
11830	1.6402e+006
11830	6.2394e+005
11831	2.2206e+006
11831	2.1944e+006
11832	1.7679e+006
11832	1.1554e+006
11833	2.55e+006
11833	2.428e+006
11834	1.8781e+006
11834	1.3212e+006
11835	2.4838e+006
11835	2.2382e+006
11836	2.3029e+006
11836	1.6975e+006
11837	2.5451e+006
11837	1.9547e+006
11838	7.5782e+005
11838	2.0877e+006
11839	9.7886e+005
11839	2.8672e+006
11840	2.5421e+006
11840	1.8657e+006
11841	2.7198e+006
11841	2.662e+006
11842	3.7691e+006
11842	4.3563e+006
11843	3.479e+006
11843	3.1604e+006
11844	2.9231e+006
11844	2.6102e+006
11845	2.8051e+006
11845	1.0131e+006
11846	1.8098e+006
11846	2.305e+006
11847	7.7865e+005
11847	1.973e+006
11848	8.4597e+005
11848	1.2443e+006
11849	1.8159e+006
11849	1.5559e+006
11850	3.0523e+006
11850	2.3647e+006
11851	2.6439e+006
11851	2.5901e+006
11852	1.3668e+006
11852	8.8211e+005
11853	1.9285e+006
11853	1.8438e+006
11854	2.0315e+006
11854	2.7969e+006
11855	3.3734e+006
11855	2.5101e+006
11856	2.0447e+006
11856	1.7674e+006
11857	1.5194e+006
11857	1.0852e+006
11858	2.271e+006
11858	2.5153e+006
11859	1.5664e+006
11859	2.3316e+006
11860	2.5594e+006
11860	1.9809e+006
11861	2.2109e+006
11861	2.12e+006
11862	3.0757e+006
11862	2.6984e+006
11863	2.2732e+006
11863	2.1012e+006
11864	4.9164e+006
11864	4.0061e+006
11865	2.5683e+006
11865	2.8716e+006
11866	2.2438e+006
11866	1.6105e+006
11867	2.3896e+006
11867	2.1737e+006
11868	1.9751e+006
11868	2.4913e+006
11869	6.9027e+005
11869	1.7361e+006
11870	1.5316e+006
11870	1.0219e+006
11871	1.7422e+006
11871	2.1049e+006
11872	9.3493e+005
11872	1.8441e+006
11873	2.4794e+006
11873	1.7242e+006
11874	2.0115e+006
11874	2.3087e+006
11875	1.9021e+006
11875	2.3127e+006
11876	2.4177e+006
11876	3.3824e+006
11877	2.9249e+006
11877	3.3363e+006
11878	1.68e+006
11878	1.5411e+006
11879	5.3541e+006
11879	5.3511e+006
11880	1.6312e+006
11880	2.1641e+006
11881	1.9905e+006
11881	1.6415e+006
11882	2.8692e+006
11882	1.9028e+006
11883	2.1257e+006
11883	6.479e+005
11884	3.8773e+006
11884	1.9841e+006
11885	1.3786e+006
11885	1.4091e+006
11886	2.8072e+006
11886	1.7166e+006
11887	1.6746e+006
11887	1.3184e+006
11888	1.6978e+006
11888	1.5866e+006
11889	1.1238e+006
11889	2.3124e+006
11890	1.9086e+006
11890	2.5041e+006
11891	3.4365e+006
11891	3.6508e+006
11892	1.3071e+006
11892	7.9067e+005
11893	7.8623e+005
11893	2.3425e+006
11894	2.7717e+006
11894	1.7218e+006
11895	6.9596e+005
11895	1.5258e+006
11896	4.9861e+006
11896	5.2504e+006
11897	2.2883e+006
11897	2.3892e+006
11898	7.7865e+005
11898	1.2388e+006
11899	2.0051e+006
11899	1.5419e+006
11900	1.8009e+006
11900	1.2068e+006
11901	2.7165e+006
11901	2.9005e+006
11902	2.3263e+006
11902	2.1698e+006
11903	2.496e+006
11903	1.4122e+006
11904	1.8822e+006
11904	2.7097e+006
11905	1.3307e+006
11905	1.7133e+006
11906	1.1836e+006
11906	1.1944e+006
11907	3.6628e+006
11907	2.2222e+006
11908	3.06e+006
11908	2.7701e+006
11909	1.8289e+006
11909	2.1354e+006
11910	2.4014e+006
11910	2.1749e+006
11911	1.9653e+006
11911	2.2907e+006
11912	2.9602e+006
11912	2.5739e+006
11913	2.7948e+006
11913	3.437e+006
11914	2.0522e+006
11914	1.1247e+006
11915	1.4278e+006
11915	2.8119e+006
11916	2.6168e+006
11916	1.2347e+006
11917	3.4765e+006
11917	3.3832e+006
11918	1.6255e+006
11918	1.568e+006
11919	1.9569e+006
11919	1.1755e+006
11920	2.2817e+006
11920	2.4794e+006
11921	1.8916e+006
11921	2.0625e+006
11922	1.6101e+006
11922	2.3217e+006
11923	3.2417e+006
11923	2.0967e+006
11924	1.5988e+006
11924	2.1674e+006
11925	2.7075e+006
11925	3.6622e+006
11926	1.1573e+006
11926	1.9236e+006
11927	3.0415e+006
11927	4.7083e+006
11928	1.8131e+006
11928	1.3725e+006
11929	3.2239e+006
11929	3.2733e+006
11930	4.8538e+006
11930	2.4207e+006
11931	2.0399e+006
11931	3.4185e+006
11932	3.0852e+006
11932	2.7076e+006
11933	3.7409e+006
11933	4.1102e+006
11934	2.9291e+006
11934	2.2904e+006
11935	1.5823e+006
11935	1.2591e+006
11936	3.0309e+006
11936	2.1051e+006
11937	3.3636e+006
11937	2.7226e+006
11938	2.1399e+006
11938	2.2141e+006
11939	1.1919e+006
11939	1.8136e+006
11940	2.6672e+006
11940	2.6422e+006
11941	1.718e+006
11941	1.6936e+006
11942	1.078e+006
11942	2.4896e+006
11943	3.0978e+006
11943	5.1552e+006
11944	8.9961e+005
11944	1.7558e+006
11945	2.5672e+006
11945	2.6647e+006
11946	1.3782e+006
11946	1.4768e+006
11947	1.4444e+006
11947	2.4195e+006
11948	3.4039e+006
11948	3.1015e+006
11949	3.2313e+006
11949	3.4729e+006
11950	2.227e+006
11950	2.2569e+006
11951	3.5596e+006
11951	3.5028e+006
11952	2.4277e+006
11952	3.5128e+006
11953	1.7619e+006
11953	1.9874e+006
11954	2.6635e+006
11954	2.3656e+006
11955	1.9313e+006
11955	2.0916e+006
11956	2.873e+006
11956	2.0851e+006
11957	1.2825e+006
11957	1.4761e+006
11958	2.3616e+006
11958	2.7106e+006
11959	2.5545e+005
11959	8.4616e+005
11960	4.3938e+005
11960	1.1923e+006
11961	3.4855e+006
11961	3.3078e+006
11962	2.5806e+006
11962	1.5325e+006
11963	2.1861e+006
11963	1.5008e+006
11964	2.1096e+006
11964	2.7712e+006
11965	3.753e+006
11965	2.9931e+006
11966	2.1047e+006
11966	1.7058e+006
11967	1.6564e+006
11967	1.7546e+006
11968	3.3782e+006
11968	3.3322e+006
11969	6.0862e+005
11969	1.7712e+006
11970	2.7359e+006
11970	2.0536e+006
11971	1.0063e+006
11971	1.8991e+006
11972	1.5044e+006
11972	6.8424e+005
11973	1.8497e+006
11973	2.1026e+006
11974	1.2219e+006
11974	1.1428e+006
11975	1.0187e+006
11975	1.2539e+006
11976	1.7434e+006
11976	2.2334e+006
11977	3.9619e+006
11977	4.0212e+006
11978	3.2827e+006
11978	3.325e+006
11979	3.2223e+006
11979	2.5956e+006
11980	3.4193e+006
11980	4.2609e+006
11981	2.0132e+006
11981	2.1429e+006
11982	3.0002e+006
11982	1.9752e+006
11983	4.1455e+006
11983	4.3261e+006
11984	2.3065e+006
11984	2.7205e+006
11985	2.0178e+006
11985	1.9576e+006
11986	2.1238e+006
11986	1.986e+006
11987	2.1043e+006
11987	2.5459e+006
11988	1.7913e+006
11988	1.7734e+006
11989	2.3272e+006
11989	1.9321e+006
11990	2.8438e+006
11990	2.4388e+006
11991	1.6155e+006
11991	1.8202e+006
11992	3.0927e+006
11992	2.4013e+006
11993	1.3881e+006
11993	1.8411e+006
11994	2.2657e+006
11994	2.3935e+006
11995	2.5514e+006
11995	3.1014e+006
11996	3.1716e+006
11996	3.1383e+006
11997	3.4621e+006
11997	1.9811e+006
11998	2.2499e+006
11998	2.1393e+006
11999	1.0638e+006
11999	1.2694e+006
12000	1.9717e+006
12000	1.93e+006
12001	3.3652e+006
12001	3.2358e+006
12002	2.3422e+006
12002	2.9736e+006
12003	2.9518e+006
12003	3.5139e+006
12004	3.064e+006
12004	3.3746e+006
12005	2.7328e+006
12005	2.7073e+006
12006	4.0521e+006
12006	3.702e+006
12007	4.0505e+006
12007	3.8678e+006
12008	2.3159e+006
12008	2.3144e+006
12009	2.8405e+006
12009	1.939e+006
12010	9.4888e+005
12010	1.5632e+006
12011	2.3394e+006
12011	2.3975e+006
12012	3.5834e+006
12012	3.1725e+006
12013	2.5937e+006
12013	2.4588e+006
12014	4.2009e+006
12014	2.3019e+006
12015	1.5336e+006
12015	2.5724e+006
12016	1.9079e+006
12016	1.6065e+006
12017	6.9216e+005
12017	1.079e+006
12018	4.0558e+006
12018	2.8216e+006
12019	2.4621e+006
12019	2.1469e+006
12020	2.6895e+006
12020	2.2678e+006
12021	2.4361e+006
12021	2.2822e+006
12022	2.5129e+006
12022	1.4023e+006
12023	3.3977e+006
12023	2.0703e+006
12024	1.4168e+006
12024	8.5636e+005
12025	1.6869e+006
12025	2.6206e+006
12026	5.661e+005
12026	4.1075e+005
12027	6.8292e+005
12027	3.6086e+005
12028	3.2357e+006
12028	2.6528e+006
12029	3.0625e+006
12029	1.925e+006
12030	2.6684e+006
12030	2.5589e+006
12031	2.2382e+006
12031	2.3403e+006
12032	6.6765e+005
12032	1.5961e+006
12033	3.0977e+006
12033	3.3099e+006
12034	1.3026e+006
12034	1.5623e+006
12035	2.9766e+006
12035	2.9782e+006
12036	2.3691e+006
12036	2.0317e+006
12037	2.1221e+006
12037	1.9291e+006
12038	3.4087e+006
12038	3.9997e+006
12039	1.4696e+006
12039	1.9452e+006
12040	8.8756e+005
12040	1.5996e+006
12041	2.7766e+006
12041	3.2032e+006
12042	2.6686e+006
12042	2.5364e+006
12043	3.5389e+006
12043	3.7743e+006
12044	3.1539e+006
12044	2.637e+006
12045	1.6445e+006
12045	3.0472e+006
12046	9.5189e+005
12046	2.0219e+006
12047	1.6451e+006
12047	1.4318e+006
12048	3.6252e+006
12048	2.0202e+006
12049	3.1139e+006
12049	2.1413e+006
12050	2.2421e+006
12050	3.229e+006
12051	1.4526e+006
12051	1.8329e+006
12052	2.2994e+006
12052	2.4731e+006
12053	2.9909e+006
12053	2.7227e+006
12054	9.8382e+005
12054	6.9157e+005
12055	3.169e+006
12055	2.2234e+006
12056	3.395e+006
12056	2.6306e+006
12057	3.8811e+006
12057	3.1093e+006
12058	1.8659e+006
12058	1.2029e+006
12059	3.8424e+006
12059	2.8592e+006
12060	3.6184e+006
12060	2.8281e+006
12061	3.4148e+006
12061	3.169e+006
12062	2.994e+006
12062	3.8017e+006
12063	2.3814e+006
12063	1.8772e+006
12064	2.6374e+006
12064	2.5191e+006
12065	3.2782e+006
12065	3.024e+006
12066	3.625e+006
12066	3.1031e+006
12067	3.0093e+006
12067	2.1935e+006
12068	1.0823e+006
12068	1.832e+006
12069	2.5669e+006
12069	4.0042e+006
12070	2.5569e+006
12070	2.2339e+006
12071	1.3247e+006
12071	1.4334e+006
12072	1.0463e+006
12072	1.3094e+006
12073	1.703e+006
12073	1.6188e+006
12074	3.3323e+006
12074	3.5002e+006
12075	2.8492e+006
12075	3.6588e+006
12076	2.2232e+006
12076	3.2125e+006
12077	1.755e+006
12077	1.5142e+006
12078	1.5406e+006
12078	1.7832e+006
12079	9.4026e+005
12079	1.2704e+006
12080	1.1926e+006
12080	1.6522e+006
12081	2.3489e+006
12081	2.2201e+006
12082	1.2095e+006
12082	2.7998e+006
12083	3.2335e+006
12083	3.5551e+006
12084	8.7773e+005
12084	7.2489e+005
12085	1.5263e+006
12085	2.0324e+006
12086	1.706e+006
12086	1.77e+006
12087	2.0064e+006
12087	1.1375e+006
12088	1.6819e+006
12088	1.8385e+006
12089	2.0261e+006
12089	1.2584e+006
12090	3.5185e+006
12090	3.3852e+006
12091	2.0664e+006
12091	1.6149e+006
12092	2.4951e+006
12092	1.7569e+006
12093	3.3464e+006
12093	3.0406e+006
12094	1.1363e+006
12094	1.556e+006
12095	2.4728e+006
12095	2.1637e+006
12096	2.3266e+006
12096	1.4783e+006
12097	3.0012e+006
12097	3.7176e+006
12098	1.9479e+006
12098	1.9169e+006
12099	2.0505e+006
12099	2.2519e+006
12100	2.1685e+006
12100	2.3423e+006
12101	2.7332e+006
12101	2.5364e+006
12102	3.2981e+006
12102	2.2513e+006
12103	1.552e+006
12103	2.4072e+006
12104	1.8647e+006
12104	3.1305e+006
12105	2.5097e+006
12105	3.0919e+006
12106	3.1367e+006
12106	1.4748e+006
12107	3.7297e+006
12107	2.9525e+006
12108	2.9548e+006
12108	2.1819e+006
12109	3.6996e+006
12109	4.1812e+006
12110	1.5371e+006
12110	1.3494e+006
12111	2.8534e+006
12111	2.9399e+006
12112	1.3083e+006
12112	2.6704e+006
12113	4.0031e+006
12113	3.4066e+006
12114	1.e+006
12114	1.2592e+006
12115	2.6458e+006
12115	2.5709e+006
12116	3.436e+006
12116	3.0485e+006
12117	1.5943e+006
12117	1.8267e+006
12118	4.5823e+006
12118	4.996e+006
12119	4.3686e+006
12119	3.773e+006
12120	1.6402e+006
12120	1.3228e+006
12121	4.6612e+006
12121	2.4065e+006
12122	3.2848e+006
12122	2.5485e+006
12123	1.1902e+006
12123	5.5208e+005
12124	1.5824e+006
12124	7.5728e+005
12125	1.2903e+006
12125	7.2417e+005
12126	8.339e+005
12126	2.0866e+005
12127	2.5923e+006
12127	2.1009e+006
12128	2.2271e+006
12128	1.0086e+006
12129	0.
12129	0.
12130	0.
12130	0.
12131	0.
12131	0.
12132	0.
12132	0.
12133	0.
12133	0.
12134	0.
12134	0.
12135	0.
12135	0.
12136	0.
12136	0.
12137	3.6174e+005
12137	2.8255e+005
12138	0.
12138	0.
12139	0.
12139	0.
12140	0.
12140	0.
12141	0.
12141	0.
12142	0.
12142	0.
12143	0.
12143	0.
12144	0.
12144	0.
12145	0.
12145	0.
12146	0.
12146	0.
12147	0.
12147	0.
12148	0.
12148	0.
12149	0.
12149	0.
12150	0.
12150	0.
12151	0.
12151	0.
12152	0.
12152	0.
12153	0.
12153	0.
12154	0.
12154	0.
12155	0.
12155	0.
12156	0.
12156	0.
12157	0.
12157	0.
12158	0.
12158	0.
12159	88217
12159	3906.1
12160	0.
12160	0.
12161	4.6379e+005
12161	1.6462e+005
12162	0.
12162	0.
12163	0.
12163	0.
12164	0.
12164	0.
12165	0.
12165	0.
12166	0.
12166	0.
12167	0.
12167	0.
12168	0.
12168	0.
12169	0.
12169	0.
12170	0.
12170	0.
12171	0.
12171	0.
12172	0.
12172	0.
12173	0.
12173	0.
12174	0.
12174	0.
12175	0.
12175	0.
12176	0.
12176	0.
12177	0.
12177	0.
12178	0.
12178	0.
12179	0.
12179	0.
12180	0.
12180	0.
12181	0.
12181	0.
12182	0.
12182	0.
12183	0.
12183	0.
12184	0.
12184	0.
12185	0.
12185	0.
12186	0.
12186	0.
12187	0.
12187	0.
12188	0.
12188	0.
12189	0.
12189	0.
12190	0.
12190	0.
12191	0.
12191	0.
12192	0.
12192	0.
12193	0.
12193	0.
12194	0.
12194	0.
12195	0.
12195	0.
12196	0.
12196	0.
12197	2.3349e+006
12197	1.0316e+006
12198	1.4577e+006
12198	7.407e+005
12199	1.6022e+006
12199	7.8255e+005
12200	3.5236e+006
12200	8.0862e+005
12201	7.689e+005
12201	7.523e+005
12202	1.7661e+006
12202	1.5742e+006
12203	1.0677e+006
12203	1.5402e+006
12204	2.9697e+006
12204	7.0976e+005
12205	8.2769e+005
12205	1.5196e+006
12206	1.2916e+006
12206	1.033e+006
12207	1.0119e+006
12207	9.5982e+005
12208	8.0095e+005
12208	1.614e+006
12209	6.4423e+005
12209	6.0104e+005
12210	1.0601e+005
12210	1.3583e+006
12211	1.0305e+006
12211	1.7843e+006
12212	9.7859e+005
12212	1.3818e+006
12213	1.9568e+006
12213	1.0565e+006
12214	1.711e+006
12214	5.8806e+005
12215	1.2597e+006
12215	8.2869e+005
12216	1.8423e+006
12216	7.625e+005
12217	1.7832e+006
12217	4.3321e+005
12218	1.3086e+006
12218	1.9885e+006
12219	5.7788e+005
12219	9.0918e+005
12220	7.2442e+005
12220	1.6448e+006
12221	1.2509e+006
12221	1.5797e+006
12222	7.9366e+005
12222	8.3088e+005
12223	5.7919e+005
12223	4.5485e+005
12224	9.8035e+005
12224	2.1441e+006
12225	9.3685e+005
12225	9.5152e+005
12226	1.0054e+006
12226	9.9976e+005
12227	2.1765e+006
12227	8.0894e+005
12228	7.1555e+005
12228	3.3428e+005
12229	1.4206e+005
12229	2.0334e+005
12230	1.6072e+005
12230	2.674e+005
12231	94249
12231	55736
12232	8.3743e+005
12232	1.2943e+006
12233	1.2269e+006
12233	3.5989e+005
12234	1.3012e+006
12234	1.4193e+006
12235	8.6592e+005
12235	7.1458e+005
12236	8.5578e+005
12236	5.6495e+005
12237	1.0999e+006
12237	6.5342e+005
12238	9.7754e+005
12238	5.7781e+005
12239	6.6402e+005
12239	5.677e+005
12240	1.0226e+006
12240	4.0671e+005
12241	8.6655e+005
12241	6.0167e+005
12242	6.8465e+005
12242	2.0826e+006
12243	1.9481e+006
12243	1.7908e+006
12244	1.4324e+006
12244	2.7009e+006
12245	1.2274e+006
12245	1.0777e+006
12246	9.4778e+005
12246	9.0259e+005
12247	1.9481e+006
12247	8.651e+005
12248	2.6498e+006
12248	3.1569e+006
12249	1.2484e+006
12249	1.6625e+006
12250	2.1283e+006
12250	1.316e+006
12251	3.2434e+006
12251	2.8612e+006
12252	1.7653e+006
12252	1.1924e+006
12253	3.2559e+006
12253	3.153e+006
12254	2.4788e+006
12254	2.3903e+006
12255	1.4328e+006
12255	1.0368e+006
12256	1.4567e+006
12256	1.7393e+006
12257	3.304e+006
12257	3.5988e+006
12258	1.5764e+006
12258	1.541e+006
12259	2.7791e+006
12259	2.5444e+006
12260	2.2613e+006
12260	2.5417e+006
12261	1.7443e+006
12261	1.518e+006
12262	2.3173e+006
12262	1.8921e+006
12263	4.315e+006
12263	3.8698e+006
12264	3.4954e+006
12264	2.6758e+006
12265	1.669e+006
12265	8.825e+005
12266	3.9922e+006
12266	3.2741e+006
12267	1.5452e+006
12267	8.6632e+005
12268	2.778e+006
12268	2.6063e+006
12269	3.4533e+006
12269	3.7553e+006
12270	1.2801e+006
12270	1.6604e+006
12271	6.633e+006
12271	3.2273e+006
12272	1.5656e+006
12272	2.1452e+006
12273	5.7062e+006
12273	4.1843e+006
12274	1.8637e+006
12274	2.0486e+006
12275	3.8696e+006
12275	2.217e+006
12276	2.725e+006
12276	1.9825e+006
12277	2.9556e+006
12277	2.3396e+006
12278	1.0655e+006
12278	1.3902e+006
12279	1.5076e+006
12279	1.5807e+006
12280	2.7133e+006
12280	2.7396e+006
12281	2.3057e+006
12281	2.7116e+006
12282	1.0004e+006
12282	9.0159e+005
12283	2.1524e+006
12283	2.0204e+006
12284	1.5878e+006
12284	6.1529e+005
12285	1.4616e+006
12285	7.6367e+005
12286	1.3719e+006
12286	1.5763e+006
12287	1.1819e+006
12287	9.3718e+005
12288	2.1242e+006
12288	1.9986e+006
12289	1.7606e+006
12289	6.7726e+005
12290	1.8684e+006
12290	9.9084e+005
12291	2.2601e+006
12291	1.0368e+006
12292	1.5812e+006
12292	1.0561e+006
12293	1.7952e+006
12293	2.2379e+006
12294	1.4922e+006
12294	1.1817e+006
12295	1.3825e+006
12295	2.5269e+006
12296	7.0548e+006
12296	4.7143e+006
12297	4.2921e+006
12297	3.0319e+006
12298	6.1162e+006
12298	2.1698e+006
12299	3.5928e+006
12299	2.9705e+006
12300	3.6026e+006
12300	3.4316e+006
12301	4.8781e+006
12301	4.2512e+006
12302	2.5605e+006
12302	2.0865e+006
12303	4.3241e+006
12303	2.0257e+006
12304	5.1287e+006
12304	4.9503e+006
12305	3.0137e+006
12305	2.2835e+006
12306	3.7334e+006
12306	3.969e+006
12307	3.5838e+006
12307	3.4155e+006
12308	5.4919e+006
12308	5.0319e+006
12309	4.5796e+006
12309	4.3286e+006
12310	3.8504e+006
12310	4.0205e+006
12311	3.4243e+006
12311	2.5221e+006
12312	4.2157e+006
12312	4.6169e+006
12313	2.2251e+006
12313	2.5035e+006
12314	4.2472e+006
12314	4.132e+006
12315	9.9614e+005
12315	1.8293e+006
12316	7.1911e+006
12316	8.0668e+006
12317	2.1526e+006
12317	2.3895e+006
12318	2.7532e+006
12318	2.0331e+006
12319	3.4288e+006
12319	2.8031e+006
12320	1.9795e+006
12320	1.691e+006
12321	2.7177e+006
12321	3.2894e+006
12322	6.4873e+006
12322	6.8096e+006
12323	2.735e+006
12323	2.3186e+006
12324	3.0603e+006
12324	4.1194e+006
12325	3.1012e+006
12325	4.4015e+006
12326	2.2106e+006
12326	2.4763e+006
12327	4.0969e+006
12327	4.9982e+006
12328	2.7547e+006
12328	4.082e+006
12329	2.7081e+006
12329	3.8893e+006
12330	1.3385e+006
12330	1.7876e+006
12331	1.2164e+006
12331	1.8044e+006
12332	2.2293e+006
12332	2.3639e+006
12333	1.0836e+006
12333	1.5003e+006
12334	1.4525e+006
12334	1.7869e+006
12335	3.1106e+006
12335	2.6331e+006
12336	1.4591e+006
12336	1.7873e+006
12337	1.8283e+006
12337	2.8825e+006
12338	8.7575e+005
12338	1.1486e+006
12339	1.9361e+006
12339	2.6853e+006
12340	7.1692e+005
12340	1.8249e+006
12341	1.1273e+006
12341	1.0224e+006
12342	1.2127e+006
12342	8.8268e+005
12343	1.6792e+006
12343	1.4121e+006
12344	1.3827e+006
12344	4.1899e+005
12345	1.3766e+006
12345	1.419e+006
12346	1.6755e+006
12346	8.8837e+005
12347	2.588e+006
12347	2.0726e+006
12348	1.6684e+006
12348	9.4746e+005
12349	2.4919e+006
12349	2.9995e+006
12350	2.9414e+006
12350	4.0418e+006
12351	5.1805e+006
12351	4.8111e+006
12352	4.2361e+006
12352	5.4766e+006
12353	3.8622e+006
12353	2.8715e+006
12354	2.4441e+006
12354	2.9759e+006
12355	3.0607e+006
12355	3.826e+006
12356	3.3687e+006
12356	2.5866e+006
12357	4.3708e+006
12357	3.7207e+006
12358	4.1571e+006
12358	4.5833e+006
12359	5.1134e+006
12359	2.459e+006
12360	4.0761e+006
12360	4.7791e+006
12361	1.5522e+006
12361	3.155e+006
12362	4.2608e+006
12362	4.8968e+006
12363	3.6691e+006
12363	6.0861e+006
12364	6.6313e+006
12364	4.3996e+006
12365	5.319e+006
12365	5.087e+006
12366	4.9883e+006
12366	4.1916e+006
12367	5.692e+006
12367	5.4424e+006
12368	4.6867e+006
12368	4.2771e+006
12369	2.853e+006
12369	2.7629e+006
12370	3.7919e+006
12370	2.9099e+006
12371	3.0903e+006
12371	3.4567e+006
12372	4.442e+006
12372	5.2198e+006
12373	2.9793e+006
12373	3.708e+006
12374	4.0449e+006
12374	4.7294e+006
12375	3.3336e+006
12375	3.5203e+006
12376	4.1747e+006
12376	3.5208e+006
12377	4.6005e+006
12377	4.5742e+006
12378	2.3105e+006
12378	1.8755e+006
12379	2.9495e+006
12379	3.2573e+006
12380	2.7617e+006
12380	1.8464e+006
12381	2.7598e+006
12381	2.3546e+006
12382	2.894e+006
12382	3.0888e+006
12383	4.4869e+006
12383	3.0946e+006
12384	4.5008e+006
12384	4.4586e+006
12385	1.9271e+006
12385	2.0771e+006
12386	2.1519e+006
12386	2.5211e+006
12387	3.5691e+006
12387	3.2069e+006
12388	3.01e+006
12388	2.9365e+006
12389	8.4033e+005
12389	1.178e+006
12390	1.8749e+006
12390	1.6404e+006
12391	3.2888e+006
12391	3.2048e+006
12392	2.0965e+006
12392	2.4258e+006
12393	1.9911e+006
12393	1.9032e+006
12394	1.4331e+006
12394	1.1905e+006
12395	9.6497e+005
12395	1.0946e+006
12396	1.4369e+006
12396	1.8568e+006
12397	1.112e+006
12397	8.8798e+005
12398	1.0146e+006
12398	9.1794e+005
12399	2.2571e+006
12399	1.8982e+006
12400	1.2723e+006
12400	7.7818e+005
12401	1.2482e+006
12401	4.7235e+005
12402	1.4188e+006
12402	4.7082e+005
12403	1.6772e+006
12403	1.998e+006
12404	7.4981e+005
12404	1.6618e+006
12405	4.8001e+006
12405	4.5176e+006
12406	3.2601e+006
12406	3.2249e+006
12407	4.2801e+006
12407	4.5403e+006
12408	2.5544e+006
12408	4.0389e+006
12409	2.8388e+006
12409	3.0096e+006
12410	1.8898e+006
12410	2.9331e+006
12411	1.886e+006
12411	9.1021e+005
12412	3.0502e+006
12412	1.9478e+006
12413	3.077e+006
12413	2.0338e+006
12414	3.07e+006
12414	3.8485e+006
12415	4.2131e+006
12415	4.6993e+006
12416	3.3927e+006
12416	3.9154e+006
12417	3.9649e+006
12417	3.3088e+006
12418	4.3529e+006
12418	5.0176e+006
12419	4.8619e+006
12419	4.4644e+006
12420	4.2097e+006
12420	4.3982e+006
12421	5.3531e+006
12421	5.3137e+006
12422	3.2359e+006
12422	3.4591e+006
12423	5.1584e+006
12423	5.4477e+006
12424	4.1604e+006
12424	5.1723e+006
12425	2.8886e+006
12425	2.3669e+006
12426	4.0719e+006
12426	4.2337e+006
12427	2.1503e+006
12427	3.1938e+006
12428	4.2375e+006
12428	4.3264e+006
12429	3.8512e+006
12429	4.1202e+006
12430	3.7036e+006
12430	3.6392e+006
12431	3.3367e+006
12431	4.2813e+006
12432	1.59e+006
12432	2.4041e+006
12433	1.2597e+006
12433	2.081e+006
12434	1.938e+006
12434	2.394e+006
12435	4.0918e+006
12435	2.8482e+006
12436	4.4594e+006
12436	4.3566e+006
12437	4.4235e+006
12437	4.0106e+006
12438	3.6979e+006
12438	2.3835e+006
12439	4.1571e+006
12439	4.1814e+006
12440	3.5226e+006
12440	4.6935e+006
12441	1.2425e+006
12441	3.079e+006
12442	2.2695e+006
12442	4.506e+006
12443	2.5499e+006
12443	4.1134e+006
12444	1.2897e+006
12444	1.3926e+006
12445	2.8171e+006
12445	2.2429e+006
12446	2.7248e+006
12446	3.0835e+006
12447	1.3048e+006
12447	1.5109e+006
12448	1.8312e+006
12448	1.2487e+006
12449	2.8259e+006
12449	1.7451e+006
12450	1.898e+006
12450	2.1308e+006
12451	3.2862e+006
12451	2.1863e+006
12452	3.9248e+006
12452	3.3698e+006
12453	2.538e+006
12453	2.8545e+006
12454	4.2764e+006
12454	4.5331e+006
12455	1.2501e+006
12455	1.069e+006
12456	1.0405e+006
12456	2.3997e+006
12457	1.4902e+006
12457	1.7784e+006
12458	1.4343e+006
12458	1.0567e+006
12459	1.2475e+006
12459	1.2256e+006
12460	1.8781e+006
12460	1.2337e+006
12461	1.5245e+006
12461	1.5804e+006
12462	1.2226e+006
12462	8.1053e+005
12463	1.139e+006
12463	1.0842e+006
12464	2.8487e+006
12464	2.4839e+006
12465	1.3212e+006
12465	1.1053e+006
12466	1.6616e+006
12466	1.6869e+006
12467	3.1478e+006
12467	2.4486e+006
12468	1.5612e+006
12468	1.0322e+006
12469	2.9532e+006
12469	2.4019e+006
12470	3.5949e+006
12470	3.32e+006
12471	4.7748e+006
12471	4.7757e+006
12472	2.6574e+006
12472	2.3291e+006
12473	2.7573e+006
12473	2.3493e+006
12474	3.1916e+006
12474	3.8317e+006
12475	1.3029e+006
12475	3.1881e+006
12476	4.1309e+006
12476	3.5247e+006
12477	1.0522e+006
12477	1.6637e+006
12478	2.0584e+006
12478	2.1302e+006
12479	1.8219e+006
12479	1.5268e+006
12480	1.934e+006
12480	2.3495e+006
12481	1.4326e+006
12481	2.567e+006
12482	2.8052e+006
12482	4.9325e+006
12483	2.1898e+006
12483	2.9275e+006
12484	2.9915e+006
12484	2.8352e+006
12485	1.5792e+006
12485	2.7238e+006
12486	3.7955e+006
12486	4.2011e+006
12487	3.7691e+006
12487	4.8339e+006
12488	1.3426e+006
12488	1.8702e+006
12489	3.5638e+006
12489	4.1765e+006
12490	2.132e+006
12490	2.5596e+006
12491	1.2574e+006
12491	3.1791e+006
12492	2.5498e+006
12492	2.8019e+006
12493	1.4855e+006
12493	4.6959e+006
12494	1.7988e+006
12494	2.3744e+006
12495	2.4316e+006
12495	3.0966e+006
12496	2.4025e+006
12496	2.0668e+006
12497	3.3715e+006
12497	2.6273e+006
12498	3.9435e+006
12498	2.947e+006
12499	1.497e+006
12499	2.0923e+006
12500	2.3997e+006
12500	2.1894e+006
12501	1.7418e+006
12501	2.3659e+006
12502	1.1926e+006
12502	2.012e+006
12503	1.996e+006
12503	3.0617e+006
12504	2.1872e+006
12504	1.8205e+006
12505	3.843e+006
12505	3.4658e+006
12506	4.0673e+006
12506	3.3445e+006
12507	1.9746e+006
12507	3.9609e+006
12508	3.1793e+006
12508	3.6518e+006
12509	2.0131e+006
12509	4.0666e+006
12510	6.2652e+006
12510	7.2591e+006
12511	4.1524e+006
12511	4.1037e+006
12512	3.2378e+006
12512	3.2574e+006
12513	3.7365e+006
12513	3.1114e+006
12514	4.9923e+006
12514	4.9418e+006
12515	2.5453e+006
12515	2.7778e+006
12516	4.9343e+006
12516	2.8301e+006
12517	5.092e+006
12517	3.4894e+006
12518	4.7822e+006
12518	2.9371e+006
12519	1.7104e+006
12519	8.1195e+005
12520	3.7506e+006
12520	3.1188e+006
12521	1.8635e+006
12521	1.8856e+006
12522	2.7821e+005
12522	1.9637e+006
12523	1.052e+006
12523	7.4616e+005
12524	8.3174e+005
12524	4.4107e+005
12525	8.1559e+005
12525	1.3027e+006
12526	4.8246e+005
12526	9.9439e+005
12527	7.9471e+005
12527	6.1322e+005
12528	9.0967e+005
12528	1.4394e+006
12529	1.8085e+006
12529	1.091e+006
12530	1.3938e+006
12530	9.3259e+005
12531	1.7927e+006
12531	1.196e+006
12532	8.8024e+005
12532	3.5338e+005
12533	1.9455e+006
12533	5.1663e+005
12534	2.1128e+006
12534	1.4786e+006
12535	1.1667e+006
12535	8.2348e+005
12536	1.3499e+006
12536	6.0437e+005
12537	1.4521e+006
12537	1.3125e+006
12538	1.8737e+006
12538	7.6648e+005
12539	6.4695e+005
12539	1.795e+006
12540	1.1476e+006
12540	7.4572e+005
12541	6.7152e+005
12541	5.2364e+005
12542	6.4463e+005
12542	5.1972e+005
12543	0.
12543	0.
12544	1.5218e+006
12544	1.1349e+006
12545	1.4762e+006
12545	1.6603e+006
12546	0.
12546	0.
12547	0.
12547	0.
12548	58050
12548	3.5572e+005
12549	2.0013e+006
12549	1.304e+006
12550	1.3738e+006
12550	1.2331e+006
12551	0.
12551	0.
12552	2.0348e+006
12552	2.8661e+006
12553	0.
12553	0.
12554	77780
12554	81291
12555	8.5417e+005
12555	3.1465e+005
12556	64108
12556	81361
12557	18327
12557	57704
12558	5.3619e+005
12558	6.1535e+005
12559	0.
12559	0.
12560	6.7281e+005
12560	8.5201e+005
12561	6.6819e+005
12561	1.3005e+006
12562	6.6943e+005
12562	1.219e+006
12563	1.7639e+005
12563	4.7041e+005
12564	0.
12564	0.
12565	0.
12565	0.
12566	0.
12566	0.
12567	0.
12567	0.
12568	1.8432e+006
12568	1.5178e+006
12569	6.0394e+005
12569	6.423e+005
12570	1562.5
12570	8744.
12571	0.
12571	0.
12572	14608
12572	39652
12573	6326.6
12573	76456
12574	0.
12574	0.
12575	0.
12575	0.
12576	16236
12576	20618
12577	0.
12577	0.
12578	85402
12578	37114
12579	44463
12579	17647
12580	93493
12580	2.2297e+005
12581	0.
12581	0.
12582	0.
12582	0.
12583	0.
12583	0.
12584	0.
12584	0.
12585	0.
12585	0.
12586	0.
12586	0.
12587	0.
12587	0.
12588	0.
12588	0.
12589	0.
12589	0.
12590	0.
12590	0.
12591	0.
12591	0.
12592	0.
12592	0.
12593	0.
12593	0.
12594	0.
12594	0.
12595	0.
12595	0.
12596	0.
12596	0.
12597	0.
12597	0.
12598	0.
12598	0.
12599	0.
12599	0.
12600	0.
12600	0.
12601	0.
12601	0.
12602	0.
12602	0.
12603	0.
12603	0.
12604	0.
12604	0.
12605	0.
12605	0.
12606	0.
12606	0.
12607	0.
12607	0.
12608	0.
12608	0.
12609	0.
12609	0.
12610	0.
12610	0.
12611	0.
12611	0.
12612	0.
12612	0.
12613	0.
12613	0.
12614	0.
12614	0.
12615	0.
12615	0.
12616	0.
12616	0.
12617	0.
12617	0.
12618	0.
12618	0.
12619	0.
12619	0.
12620	0.
12620	0.
12621	0.
12621	0.
12622	0.
12622	0.
12623	0.
12623	0.
12624	0.
12624	0.
12625	0.
12625	0.
12626	0.
12626	0.
12627	0.
12627	0.
12628	0.
12628	0.
12629	0.
12629	0.
12630	0.
12630	0.
12631	0.
12631	0.
12632	0.
12632	0.
12633	0.
12633	0.
12634	0.
12634	0.
12635	0.
12635	0.
12636	0.
12636	0.
12637	0.
12637	0.
12638	0.
12638	0.
12639	0.
12639	0.
12640	0.
12640	0.
12641	7.0604e+005
12641	6.3826e+005
12642	6.5127e+005
12642	5.8625e+005
12643	1.0234e+006
12643	7.8066e+005
12644	9.1108e+005
12644	9.9107e+005
12645	2.6786e+006
12645	2.1492e+006
12646	2.3612e+006
12646	2.2212e+006
12647	4.8093e+005
12647	7.154e+005
12648	1.4313e+006
12648	2.132e+006
12649	2.3631e+006
12649	2.2817e+006
12650	1.5891e+006
12650	1.8744e+006
12651	8.1401e+005
12651	1.1437e+006
12652	1.675e+006
12652	1.1869e+006
12653	1.2333e+006
12653	4.2977e+005
12654	4.7801e+005
12654	7.1966e+005
12655	1.612e+006
12655	4.4754e+005
12656	6.3452e+005
12656	4.9094e+005
12657	3.0587e+005
12657	5.5823e+005
12658	1.5536e+006
12658	1.2774e+006
12659	1.4133e+006
12659	9.9904e+005
12660	9.7614e+005
12660	9.0456e+005
12661	7.9944e+005
12661	7.2223e+005
12662	1.4935e+006
12662	3.3393e+005
12663	5.66e+005
12663	1.3027e+006
12664	1.3979e+006
12664	4.9943e+005
12665	4.8082e+005
12665	1.0654e+006
12666	2.3067e+006
12666	1.0088e+006
12667	1.2559e+006
12667	9.9519e+005
12668	2.1169e+006
12668	8.2597e+005
12669	1.6407e+006
12669	1.8746e+006
12670	1.4868e+006
12670	7.1857e+005
12671	2.0531e+006
12671	1.3746e+006
12672	1.3771e+006
12672	1.6697e+006
12673	1.8528e+006
12673	1.633e+006
12674	1.1738e+006
12674	8.2544e+005
12675	1.6864e+006
12675	2.111e+006
12676	1.4981e+006
12676	1.1184e+006
12677	1.4317e+006
12677	1.4502e+006
12678	1.866e+006
12678	2.0061e+006
12679	1.2871e+006
12679	1.3219e+006
12680	1.7112e+006
12680	1.6458e+006
12681	1.6313e+006
12681	1.8117e+006
12682	1.2117e+006
12682	1.4816e+006
12683	1.6425e+006
12683	1.6159e+006
12684	2.3669e+006
12684	4.9612e+005
12685	2.2031e+006
12685	1.2649e+006
12686	1.7545e+006
12686	8.807e+005
12687	2.5286e+006
12687	2.0679e+006
12688	1.9301e+006
12688	1.117e+006
12689	1.1279e+006
12689	1.1601e+006
12690	1.3679e+006
12690	1.3928e+006
12691	1.5926e+006
12691	1.5597e+006
12692	7.7262e+005
12692	8.6399e+005
12693	1.1784e+006
12693	8.2279e+005
12694	2.0858e+006
12694	2.0405e+006
12695	1.4432e+006
12695	1.3172e+006
12696	2.4004e+006
12696	1.9217e+006
12697	3.0428e+005
12697	6.5889e+005
12698	1.0369e+006
12698	9.6448e+005
12699	9.3566e+005
12699	9.8101e+005
12700	8.1569e+005
12700	1.0223e+006
12701	6.7493e+005
12701	9.721e+005
12702	1.7826e+006
12702	1.8154e+006
12703	1.5213e+006
12703	8.7476e+005
12704	1.1163e+006
12704	1.5355e+006
12705	1.9615e+006
12705	2.5069e+006
12706	1.6184e+006
12706	2.125e+006
12707	8.5353e+005
12707	1.0731e+006
12708	2.0844e+006
12708	2.0779e+006
12709	1.5075e+006
12709	1.2007e+006
12710	2.3465e+006
12710	1.594e+006
12711	3.9481e+006
12711	2.6798e+006
12712	2.1925e+006
12712	2.0711e+006
12713	2.8313e+006
12713	2.458e+006
12714	2.0449e+006
12714	2.9122e+006
12715	2.9035e+006
12715	2.9716e+006
12716	4.0155e+006
12716	4.2556e+006
12717	2.5244e+006
12717	2.8505e+006
12718	2.6122e+006
12718	2.3402e+006
12719	4.313e+006
12719	2.503e+006
12720	3.3968e+006
12720	4.3547e+006
12721	5.3554e+006
12721	3.4449e+006
12722	2.8511e+006
12722	2.4028e+006
12723	3.0977e+006
12723	3.6423e+006
12724	3.8753e+006
12724	3.6493e+006
12725	6.4465e+006
12725	1.0324e+007
12726	6.9742e+006
12726	6.1212e+006
12727	4.5065e+006
12727	5.8049e+006
12728	5.3206e+006
12728	6.2755e+006
12729	3.1287e+006
12729	3.6994e+006
12730	4.5358e+006
12730	3.8651e+006
12731	3.775e+006
12731	4.6885e+006
12732	4.7589e+006
12732	4.6105e+006
12733	7.4126e+006
12733	6.861e+006
12734	3.0292e+006
12734	2.9286e+006
12735	5.0916e+006
12735	4.5467e+006
12736	4.858e+006
12736	5.6104e+006
12737	1.4035e+006
12737	1.0572e+006
12738	4.1999e+006
12738	2.5135e+006
12739	2.3738e+006
12739	2.2095e+006
12740	5.1601e+006
12740	4.3609e+006
12741	2.9705e+006
12741	3.4398e+006
12742	4.7796e+006
12742	2.8246e+006
12743	2.5289e+006
12743	3.318e+006
12744	3.2905e+006
12744	4.539e+006
12745	2.8109e+006
12745	2.4416e+006
12746	1.3797e+006
12746	9.1393e+005
12747	3.5026e+006
12747	3.7748e+006
12748	3.3604e+006
12748	2.8008e+006
12749	1.7756e+006
12749	1.6988e+006
12750	2.8127e+006
12750	2.1827e+006
12751	1.9944e+006
12751	9.3221e+005
12752	2.4199e+006
12752	2.9329e+006
12753	2.9062e+006
12753	4.0683e+006
12754	4.2931e+006
12754	7.0203e+006
12755	3.7883e+006
12755	4.6122e+006
12756	1.6163e+006
12756	5.8934e+005
12757	3.4425e+006
12757	3.3976e+006
12758	6.9879e+006
12758	5.802e+006
12759	3.2157e+006
12759	3.7517e+006
12760	3.4575e+006
12760	3.8426e+006
12761	1.4533e+006
12761	1.5603e+006
12762	2.4231e+006
12762	1.8666e+006
12763	1.6201e+006
12763	2.4611e+006
12764	3.6328e+006
12764	2.0001e+006
12765	3.8424e+006
12765	4.8527e+006
12766	4.4886e+006
12766	6.528e+006
12767	5.4116e+006
12767	3.5855e+006
12768	4.5587e+006
12768	2.8176e+006
12769	4.5029e+006
12769	4.7496e+006
12770	4.2823e+006
12770	3.8818e+006
12771	2.7631e+006
12771	3.2946e+006
12772	5.2252e+006
12772	3.2674e+006
12773	2.7775e+006
12773	3.0936e+006
12774	4.5681e+006
12774	4.1135e+006
12775	4.2203e+006
12775	4.3578e+006
12776	5.662e+006
12776	5.7968e+006
12777	3.8989e+006
12777	4.525e+006
12778	3.8326e+006
12778	4.2366e+006
12779	4.5683e+006
12779	3.9654e+006
12780	5.0509e+006
12780	5.0325e+006
12781	5.4418e+006
12781	4.4525e+006
12782	5.1692e+006
12782	3.0287e+006
12783	5.5614e+006
12783	2.8981e+006
12784	2.5614e+006
12784	3.2433e+006
12785	4.2749e+006
12785	2.9638e+006
12786	2.2162e+006
12786	4.7129e+006
12787	3.8588e+006
12787	3.7986e+006
12788	6.5486e+006
12788	6.2709e+006
12789	3.0474e+006
12789	2.5726e+006
12790	5.3532e+006
12790	3.2459e+006
12791	4.2713e+006
12791	4.6223e+006
12792	6.0442e+006
12792	4.9856e+006
12793	7.8735e+006
12793	6.068e+006
12794	4.4713e+006
12794	5.3329e+006
12795	2.3982e+006
12795	1.3836e+006
12796	2.6729e+006
12796	3.2245e+006
12797	4.0583e+006
12797	2.4967e+006
12798	8.7317e+005
12798	3.2602e+005
12799	4.6616e+006
12799	5.0797e+006
12800	4.6354e+006
12800	5.571e+006
12801	5.0285e+006
12801	4.074e+006
12802	3.834e+006
12802	3.6562e+006
12803	4.0231e+006
12803	3.9435e+006
12804	4.3682e+006
12804	4.1904e+006
12805	2.011e+006
12805	2.3098e+006
12806	3.9533e+006
12806	4.5956e+006
12807	3.8066e+006
12807	4.2784e+006
12808	2.3128e+006
12808	1.8005e+006
12809	2.25e+006
12809	2.8904e+006
12810	5.0222e+006
12810	4.7336e+006
12811	3.074e+006
12811	2.5643e+006
12812	1.3131e+006
12812	1.8231e+006
12813	7.4668e+005
12813	8.8033e+005
12814	1.226e+006
12814	9.5579e+005
12815	5.3403e+006
12815	5.4554e+006
12816	4.9342e+006
12816	5.2893e+006
12817	1.9536e+006
12817	1.3051e+006
12818	1.4985e+006
12818	1.3406e+006
12819	2.3835e+006
12819	2.1984e+006
12820	4.9648e+006
12820	5.3142e+006
12821	4.0159e+006
12821	4.6599e+006
12822	1.1884e+006
12822	1.7318e+006
12823	3.5589e+006
12823	3.5391e+006
12824	2.264e+006
12824	1.4681e+006
12825	3.0655e+006
12825	2.9412e+006
12826	3.0117e+006
12826	3.6154e+006
12827	6.101e+006
12827	5.598e+006
12828	3.2227e+006
12828	2.3132e+006
12829	4.1653e+006
12829	3.1349e+006
12830	3.8973e+006
12830	3.9891e+006
12831	3.7933e+006
12831	3.3881e+006
12832	5.8298e+006
12832	5.9728e+006
12833	4.7234e+006
12833	3.6918e+006
12834	3.0144e+006
12834	3.2841e+006
12835	5.0943e+006
12835	5.4248e+006
12836	2.4719e+006
12836	2.2006e+006
12837	5.4487e+006
12837	5.1964e+006
12838	4.9801e+006
12838	4.9744e+006
12839	6.5966e+006
12839	6.3125e+006
12840	4.0722e+006
12840	4.2411e+006
12841	2.9538e+006
12841	4.0163e+006
12842	2.1034e+006
12842	3.2694e+006
12843	1.8866e+006
12843	3.3142e+006
12844	6.8041e+006
12844	6.7687e+006
12845	4.9634e+006
12845	4.339e+006
12846	2.5511e+006
12846	2.4019e+006
12847	4.3757e+006
12847	4.2693e+006
12848	3.5478e+006
12848	2.5907e+006
12849	5.0224e+006
12849	1.2021e+007
12850	3.4036e+006
12850	3.0192e+006
12851	4.1486e+006
12851	7.2366e+006
12852	3.5374e+006
12852	4.0473e+006
12853	5.5754e+006
12853	6.503e+006
12854	5.1423e+006
12854	3.8935e+006
12855	3.3727e+006
12855	3.9801e+006
12856	5.8366e+006
12856	4.8957e+006
12857	3.6039e+006
12857	6.2418e+006
12858	3.8762e+006
12858	3.8541e+006
12859	6.3536e+006
12859	6.1541e+006
12860	2.6624e+006
12860	6.29e+006
12861	2.4696e+006
12861	3.6754e+006
12862	6.8543e+006
12862	7.9401e+006
12863	5.0652e+006
12863	5.4013e+006
12864	3.8556e+006
12864	4.0744e+006
12865	4.7459e+006
12865	3.6334e+006
12866	5.435e+006
12866	4.2956e+006
12867	3.9106e+006
12867	3.7363e+006
12868	4.2423e+006
12868	4.5156e+006
12869	4.1356e+006
12869	3.7821e+006
12870	5.377e+006
12870	5.2271e+006
12871	4.1724e+006
12871	4.8834e+006
12872	4.8163e+006
12872	4.1256e+006
12873	5.1115e+006
12873	5.0272e+006
12874	4.3973e+006
12874	3.4342e+006
12875	2.467e+006
12875	4.7543e+006
12876	3.0878e+006
12876	2.9488e+006
12877	2.4889e+006
12877	2.4363e+006
12878	4.3999e+006
12878	2.7656e+006
12879	3.0274e+006
12879	2.6315e+006
12880	2.7307e+006
12880	1.1331e+006
12881	2.4634e+006
12881	2.3593e+006
12882	4.9065e+006
12882	5.088e+006
12883	1.4739e+006
12883	1.0625e+006
12884	3.9621e+006
12884	3.3753e+006
12885	1.8226e+006
12885	9.175e+005
12886	1.6041e+006
12886	1.5541e+006
12887	1.7988e+006
12887	2.1109e+006
12888	1.1741e+006
12888	1.9898e+006
12889	3.4311e+006
12889	4.3451e+006
12890	3.6806e+006
12890	3.4901e+006
12891	4.9272e+006
12891	5.2248e+006
12892	1.4768e+006
12892	1.6394e+006
12893	2.0266e+006
12893	1.5972e+006
12894	1.2322e+006
12894	1.5086e+006
12895	4.9819e+006
12895	6.1944e+006
12896	1.3106e+006
12896	1.9951e+006
12897	1.1728e+006
12897	1.9899e+006
12898	2.4771e+006
12898	1.7378e+006
12899	2.0159e+006
12899	2.3796e+006
12900	2.5879e+006
12900	2.9783e+006
12901	4.0321e+006
12901	4.0012e+006
12902	1.5645e+006
12902	1.5156e+006
12903	2.1106e+006
12903	2.1757e+006
12904	3.3544e+006
12904	3.223e+006
12905	2.7839e+006
12905	2.2117e+006
12906	1.5502e+006
12906	3.8483e+006
12907	5.2173e+006
12907	5.2215e+006
12908	3.3595e+006
12908	2.6669e+006
12909	4.7279e+006
12909	4.3269e+006
12910	3.7859e+006
12910	5.5943e+006
12911	4.4489e+006
12911	3.6368e+006
12912	4.0886e+006
12912	2.8462e+006
12913	2.9014e+006
12913	5.7111e+006
12914	1.6735e+006
12914	5.3803e+006
12915	4.1454e+006
12915	5.6208e+006
12916	4.5406e+006
12916	5.0083e+006
12917	6.0196e+006
12917	6.7565e+006
12918	4.7867e+006
12918	4.2041e+006
12919	3.5913e+006
12919	3.6332e+006
12920	4.6266e+006
12920	6.0446e+006
12921	5.968e+006
12921	5.2345e+006
12922	5.3028e+006
12922	4.2414e+006
12923	6.2493e+006
12923	6.0196e+006
12924	2.1988e+006
12924	2.0468e+006
12925	4.2056e+006
12925	3.9905e+006
12926	1.8406e+006
12926	1.883e+006
12927	4.4357e+006
12927	3.631e+006
12928	4.1378e+006
12928	3.1569e+006
12929	4.0356e+006
12929	2.4591e+006
12930	2.1768e+006
12930	2.4505e+006
12931	4.7822e+006
12931	4.1754e+006
12932	1.0942e+007
12932	6.0987e+006
12933	6.8403e+006
12933	4.5384e+006
12934	3.1945e+006
12934	3.9954e+006
12935	3.6376e+006
12935	3.021e+006
12936	4.9989e+006
12936	4.5508e+006
12937	4.4239e+006
12937	3.7934e+006
12938	6.0595e+006
12938	4.2073e+006
12939	2.9724e+006
12939	2.8702e+006
12940	6.8114e+006
12940	2.8421e+006
12941	2.5361e+006
12941	1.943e+006
12942	4.9066e+006
12942	4.3607e+006
12943	5.5599e+006
12943	5.8474e+006
12944	5.9036e+006
12944	5.0377e+006
12945	5.147e+006
12945	4.6291e+006
12946	3.2672e+006
12946	4.1515e+006
12947	4.4058e+006
12947	3.676e+006
12948	3.9362e+006
12948	3.8628e+006
12949	5.8097e+006
12949	5.903e+006
12950	3.7095e+006
12950	5.6203e+006
12951	2.8725e+006
12951	3.5907e+006
12952	3.63e+006
12952	3.812e+006
12953	5.1152e+006
12953	5.0668e+006
12954	4.0865e+006
12954	4.6897e+006
12955	5.2586e+006
12955	3.2337e+006
12956	3.6642e+006
12956	4.2401e+006
12957	2.1889e+006
12957	2.9399e+006
12958	4.9545e+006
12958	4.8966e+006
12959	3.618e+006
12959	3.2497e+006
12960	1.8024e+006
12960	1.9803e+006
12961	2.9246e+006
12961	3.465e+006
12962	2.9595e+006
12962	4.6899e+006
12963	1.0186e+006
12963	7.6866e+005
12964	1.4055e+006
12964	1.3836e+006
12965	5.6107e+006
12965	6.5421e+006
12966	1.391e+006
12966	1.356e+006
12967	1.411e+006
12967	1.2658e+006
12968	1.7005e+006
12968	1.1558e+006
12969	1.2914e+006
12969	9.6615e+005
12970	8.2478e+005
12970	1.2457e+006
12971	1.2661e+006
12971	1.3455e+006
12972	2.9886e+006
12972	3.9124e+006
12973	6.4598e+006
12973	7.8861e+006
12974	3.2819e+006
12974	3.9843e+006
12975	4.5668e+006
12975	4.6157e+006
12976	2.4474e+006
12976	3.1994e+006
12977	2.4293e+006
12977	1.7185e+006
12978	1.5235e+006
12978	1.4354e+006
12979	3.691e+006
12979	3.2497e+006
12980	3.3496e+006
12980	3.3591e+006
12981	5.0103e+006
12981	6.1208e+006
12982	3.4652e+006
12982	3.2518e+006
12983	3.5962e+006
12983	2.8507e+006
12984	3.4617e+006
12984	3.6024e+006
12985	4.8256e+006
12985	2.98e+006
12986	6.519e+006
12986	5.895e+006
12987	3.178e+006
12987	3.3921e+006
12988	3.5294e+006
12988	4.0371e+006
12989	5.5212e+006
12989	6.376e+006
12990	2.4574e+006
12990	2.6951e+006
12991	3.6381e+006
12991	4.4225e+006
12992	2.1635e+006
12992	4.2106e+006
12993	5.3096e+006
12993	4.8824e+006
12994	2.7055e+006
12994	2.3354e+006
12995	3.3009e+006
12995	3.4347e+006
12996	3.3522e+006
12996	2.3659e+006
12997	4.0388e+006
12997	3.5735e+006
12998	3.5675e+006
12998	3.5502e+006
12999	1.6553e+006
12999	2.9165e+006
13000	2.1061e+006
13000	2.3036e+006
13001	6.1998e+006
13001	8.7621e+006
13002	6.0175e+006
13002	4.5375e+006
13003	5.1814e+006
13003	5.3779e+006
13004	1.9133e+006
13004	3.2775e+006
13005	2.0924e+006
13005	1.8212e+006
13006	3.0723e+006
13006	2.1551e+006
13007	4.8384e+006
13007	4.3249e+006
13008	2.9696e+006
13008	2.915e+006
13009	2.3814e+006
13009	2.0647e+006
13010	3.5428e+006
13010	2.6489e+006
13011	3.991e+006
13011	2.817e+006
13012	2.9923e+006
13012	2.906e+006
13013	5.2486e+005
13013	1.0895e+006
13014	5.9439e+005
13014	8.5642e+005
13015	6.4352e+005
13015	1.5714e+006
13016	1.1223e+006
13016	5.1263e+005
13017	3.6349e+006
13017	2.6803e+006
13018	2.1247e+006
13018	1.7579e+006
13019	4.2105e+005
13019	5.0324e+005
13020	6.0565e+005
13020	8.7955e+005
13021	1.7802e+006
13021	1.8545e+006
13022	2.6389e+006
13022	2.733e+006
13023	1.358e+005
13023	7.6211e+005
13024	2.5826e+006
13024	1.8855e+006
13025	2.5518e+006
13025	2.3093e+006
13026	1.3729e+006
13026	1.375e+006
13027	3.2093e+006
13027	2.6799e+006
13028	2.1717e+006
13028	1.2023e+006
13029	1.0914e+006
13029	1.3423e+006
13030	8.1339e+005
13030	2.0102e+006
13031	3.4582e+006
13031	3.6144e+006
13032	6.3601e+005
13032	1.86e+006
13033	1.0809e+006
13033	7.0546e+005
13034	5.9794e+006
13034	6.3684e+006
13035	3.2104e+006
13035	3.4045e+006
13036	4.8981e+006
13036	4.1246e+006
13037	5.4013e+006
13037	4.0235e+006
13038	3.9965e+006
13038	2.8899e+006
13039	2.8878e+005
13039	3.2989e+005
13040	4.9166e+005
13040	5.4902e+005
13041	1.0356e+006
13041	1.1215e+006
13042	0.
13042	0.
13043	3.3792e+005
13043	3.8799e+005
13044	4.0302e+005
13044	1.4784e+005
13045	0.
13045	0.
13046	0.
13046	0.
13047	0.
13047	0.
13048	0.
13048	0.
13049	0.
13049	0.
13050	0.
13050	0.
13051	0.
13051	0.
13052	0.
13052	0.
13053	0.
13053	0.
13054	0.
13054	0.
13055	0.
13055	0.
13056	0.
13056	0.
13057	0.
13057	0.
13058	0.
13058	0.
13059	0.
13059	0.
13060	0.
13060	0.
13061	0.
13061	0.
13062	0.
13062	0.
13063	0.
13063	0.
13064	0.
13064	0.
13065	0.
13065	0.
13066	0.
13066	0.
13067	0.
13067	0.
13068	0.
13068	0.
13069	0.
13069	0.
13070	0.
13070	0.
13071	0.
13071	0.
13072	0.
13072	0.
13073	0.
13073	0.
13074	0.
13074	0.
13075	0.
13075	0.
13076	0.
13076	0.
13077	0.
13077	0.
13078	0.
13078	0.
13079	0.
13079	0.
13080	0.
13080	0.
13081	0.
13081	0.
13082	0.
13082	0.
13083	0.
13083	0.
13084	0.
13084	0.
13085	0.
13085	0.
13086	0.
13086	0.
13087	0.
13087	0.
13088	0.
13088	0.
13089	0.
13089	0.
13090	0.
13090	0.
13091	0.
13091	0.
13092	0.
13092	0.
13093	0.
13093	0.
13094	0.
13094	0.
13095	0.
13095	0.
13096	0.
13096	0.
13097	0.
13097	0.
13098	0.
13098	0.
13099	0.
13099	0.
13100	0.
13100	0.
13101	0.
13101	0.
13102	0.
13102	0.
13103	0.
13103	0.
13104	0.
13104	0.
13105	0.
13105	0.
13106	0.
13106	0.
13107	0.
13107	0.
13108	0.
13108	0.
13109	0.
13109	0.
13110	0.
13110	0.
13111	0.
13111	0.
13112	0.
13112	0.
13113	0.
13113	0.
13114	0.
13114	0.
13115	6.0234e+005
13115	5.365e+005
13116	9.3921e+005
13116	1.9901e+006
13117	9.8565e+005
13117	2.0825e+006
13118	5.4414e+005
13118	7.8074e+005
13119	2.4418e+006
13119	6.8539e+005
13120	2.3515e+006
13120	5.4129e+005
13121	7.2382e+005
13121	6.3599e+005
13122	1.5213e+006
13122	1.0811e+006
13123	1.4743e+006
13123	1.7145e+006
13124	4.081e+005
13124	1.1399e+006
13125	1.1378e+006
13125	1.8686e+006
13126	3.2228e+005
13126	1.2024e+006
13127	1.8147e+006
13127	1.2103e+006
13128	1.7231e+006
13128	1.4863e+006
13129	1.2964e+006
13129	5.5412e+005
13130	4.7071e+005
13130	6.5391e+005
13131	1.3917e+006
13131	5.4003e+005
13132	1.1865e+006
13132	3.7266e+005
13133	1.3328e+006
13133	1.2053e+006
13134	7.6852e+005
13134	1.6447e+006
13135	1.037e+006
13135	1.3532e+006
13136	4.6273e+005
13136	1.8552e+006
13137	9.9859e+005
13137	1.3335e+006
13138	1.5407e+006
13138	1.4268e+006
13139	5.4328e+005
13139	9.752e+005
13140	1.0734e+006
13140	8.4952e+005
13141	1.0729e+006
13141	9.7989e+005
13142	1.0413e+006
13142	7.4344e+005
13143	1.5004e+006
13143	9.1177e+005
13144	6.4214e+005
13144	5.4106e+005
13145	3.7808e+005
13145	6.8385e+005
13146	1.1979e+006
13146	9.0655e+005
13147	1.173e+006
13147	8.8909e+005
13148	1.2291e+006
13148	9.7238e+005
13149	1.0208e+006
13149	1.1458e+006
13150	1.0219e+006
13150	9.8466e+005
13151	1.1959e+006
13151	7.3326e+005
13152	8.6971e+005
13152	6.825e+005
13153	1.337e+006
13153	7.442e+005
13154	9.9602e+005
13154	8.1755e+005
13155	7.6766e+005
13155	3.1786e+005
13156	7.0905e+005
13156	3.308e+005
13157	7.7219e+005
13157	3.1135e+005
13158	5.8948e+005
13158	5.4966e+005
13159	1.4498e+006
13159	4.7802e+005
13160	1.7602e+006
13160	1.0144e+006
13161	1.6448e+006
13161	1.2608e+006
13162	7.0913e+005
13162	8.6144e+005
13163	1.4298e+006
13163	8.5521e+005
13164	6.5669e+005
13164	1.1526e+006
13165	7.8454e+005
13165	1.2359e+006
13166	9.9773e+005
13166	1.8577e+006
13167	8.3013e+005
13167	2.6678e+006
13168	9.6939e+005
13168	1.0352e+006
13169	1.1254e+006
13169	4.6695e+005
13170	8.092e+005
13170	8.6191e+005
13171	1.89e+006
13171	1.535e+006
13172	1.9406e+006
13172	2.0586e+006
13173	9.5116e+005
13173	1.2998e+006
13174	1.4543e+006
13174	1.9725e+006
13175	1.4114e+006
13175	2.4358e+006
13176	7.9824e+005
13176	9.3158e+005
13177	9.0284e+005
13177	1.1024e+006
13178	1.636e+006
13178	1.5699e+006
13179	2.6377e+006
13179	3.217e+006
13180	1.8012e+006
13180	1.3865e+006
13181	3.1658e+005
13181	4.2655e+005
13182	1.2539e+006
13182	9.7635e+005
13183	1.7381e+006
13183	1.409e+006
13184	2.1717e+006
13184	2.6065e+006
13185	1.7237e+006
13185	6.9751e+005
13186	1.6385e+006
13186	1.0649e+006
13187	4.3055e+006
13187	2.6858e+006
13188	2.4972e+006
13188	3.0777e+006
13189	2.6197e+006
13189	3.2496e+006
13190	1.856e+006
13190	2.1704e+006
13191	1.733e+006
13191	2.7126e+006
13192	3.4681e+006
13192	3.5224e+006
13193	3.1579e+006
13193	2.9862e+006
13194	3.9069e+006
13194	4.0749e+006
13195	1.5397e+006
13195	1.7248e+006
13196	1.4707e+006
13196	8.4196e+005
13197	5.9666e+006
13197	3.1781e+006
13198	2.3348e+006
13198	2.6785e+006
13199	2.5316e+006
13199	2.4145e+006
13200	2.2072e+006
13200	3.5209e+006
13201	2.9803e+006
13201	3.281e+006
13202	3.5601e+006
13202	2.4695e+006
13203	2.4015e+006
13203	1.4532e+006
13204	9.8092e+005
13204	1.7805e+006
13205	1.2177e+006
13205	1.2591e+006
13206	2.1016e+006
13206	2.1126e+006
13207	2.3067e+006
13207	2.9076e+006
13208	2.1072e+006
13208	2.8907e+006
13209	3.2792e+006
13209	2.2148e+006
13210	3.416e+006
13210	2.6129e+006
13211	2.4794e+006
13211	2.4606e+006
13212	1.0392e+006
13212	4.3889e+005
13213	2.5981e+006
13213	2.0329e+006
13214	3.5075e+006
13214	3.2023e+006
13215	3.1255e+006
13215	1.7804e+006
13216	3.1925e+006
13216	2.408e+006
13217	4.112e+006
13217	2.265e+006
13218	2.3882e+006
13218	2.4883e+006
13219	1.5801e+006
13219	9.4273e+005
13220	1.3125e+006
13220	1.707e+006
13221	7.6445e+005
13221	7.6341e+005
13222	1.0704e+006
13222	1.8942e+006
13223	2.3725e+006
13223	2.2844e+006
13224	1.5678e+006
13224	1.5381e+006
13225	2.6488e+006
13225	3.0503e+006
13226	1.5809e+006
13226	1.4331e+006
13227	1.6925e+006
13227	2.096e+006
13228	2.6594e+006
13228	2.3682e+006
13229	3.9369e+005
13229	1.3443e+006
13230	2.0894e+006
13230	1.951e+006
13231	3.6724e+006
13231	4.102e+006
13232	2.3685e+006
13232	2.4833e+006
13233	1.1012e+006
13233	1.5351e+006
13234	1.8921e+006
13234	2.5246e+006
13235	1.4152e+006
13235	1.0802e+006
13236	1.3307e+006
13236	1.0086e+006
13237	1.6491e+006
13237	9.2245e+005
13238	7.6056e+005
13238	9.7976e+005
13239	2.0155e+006
13239	1.8962e+006
13240	8.8123e+005
13240	7.6567e+005
13241	2.2172e+006
13241	2.0865e+006
13242	1.5117e+006
13242	1.0979e+006
13243	4.9683e+006
13243	2.4362e+006
13244	1.1189e+006
13244	1.6412e+006
13245	1.4278e+006
13245	2.22e+006
13246	1.0471e+006
13246	1.791e+006
13247	1.2403e+006
13247	1.7388e+006
13248	1.9125e+006
13248	2.3415e+006
13249	1.627e+006
13249	2.2375e+006
13250	2.0969e+006
13250	3.223e+006
13251	2.3303e+006
13251	1.9793e+006
13252	2.1253e+006
13252	9.0559e+005
13253	1.9788e+006
13253	1.1748e+006
13254	1.2058e+006
13254	1.4459e+006
13255	3.023e+006
13255	2.2477e+006
13256	3.0138e+006
13256	2.4964e+006
13257	4.3892e+006
13257	3.9048e+006
13258	3.2798e+006
13258	4.1647e+006
13259	2.6885e+006
13259	1.9611e+006
13260	2.9618e+006
13260	2.5717e+006
13261	4.5592e+006
13261	3.6439e+006
13262	3.2076e+006
13262	3.2e+006
13263	1.1396e+006
13263	1.0074e+006
13264	1.955e+006
13264	2.0742e+006
13265	1.054e+006
13265	2.4234e+006
13266	2.3165e+006
13266	3.768e+006
13267	2.8333e+006
13267	3.6134e+006
13268	2.0301e+006
13268	1.9991e+006
13269	1.068e+006
13269	1.5111e+006
13270	1.7454e+006
13270	7.1198e+006
13271	2.3152e+006
13271	2.0601e+006
13272	1.5564e+006
13272	1.4832e+006
13273	1.7377e+006
13273	2.46e+006
13274	2.1892e+006
13274	2.6179e+006
13275	2.0107e+006
13275	1.9787e+006
13276	2.1304e+006
13276	3.1579e+006
13277	2.4768e+006
13277	2.792e+006
13278	2.3977e+006
13278	2.0412e+006
13279	2.5338e+006
13279	3.106e+006
13280	3.3839e+006
13280	2.3854e+006
13281	5.1714e+006
13281	4.2605e+006
13282	3.6893e+006
13282	3.2818e+006
13283	2.7611e+006
13283	2.6793e+006
13284	2.3822e+006
13284	3.2391e+006
13285	1.9119e+006
13285	1.8957e+006
13286	3.4178e+006
13286	3.1463e+006
13287	2.4164e+006
13287	2.1279e+006
13288	1.3898e+006
13288	2.2384e+006
13289	8.4874e+005
13289	1.4316e+006
13290	1.7551e+006
13290	2.3749e+006
13291	4.5432e+005
13291	1.5619e+006
13292	2.791e+006
13292	2.9548e+006
13293	2.3145e+006
13293	1.8726e+006
13294	2.4892e+006
13294	3.0135e+006
13295	2.4501e+006
13295	1.8044e+006
13296	3.2184e+006
13296	2.3875e+006
13297	1.9162e+006
13297	9.7927e+005
13298	3.7162e+006
13298	3.9416e+006
13299	1.5983e+006
13299	2.2041e+006
13300	3.4323e+006
13300	4.2562e+006
13301	2.2501e+006
13301	3.4685e+006
13302	1.9019e+006
13302	1.2394e+006
13303	1.413e+006
13303	1.0649e+006
13304	5.8763e+005
13304	1.3161e+006
13305	2.8874e+006
13305	2.7204e+006
13306	9.1604e+005
13306	1.1505e+006
13307	1.7553e+006
13307	2.2043e+006
13308	1.2721e+006
13308	1.5871e+006
13309	4.1795e+005
13309	8.165e+005
13310	2.0635e+006
13310	2.4746e+006
13311	2.3055e+006
13311	1.9703e+006
13312	2.2179e+006
13312	1.704e+006
13313	2.6531e+006
13313	2.2388e+006
13314	1.1047e+006
13314	1.825e+006
13315	9.6604e+005
13315	1.9479e+006
13316	3.2742e+006
13316	1.6457e+006
13317	1.5203e+006
13317	1.337e+006
13318	2.3839e+006
13318	2.5767e+006
13319	2.0723e+006
13319	3.7201e+006
13320	2.3945e+006
13320	2.056e+006
13321	3.8905e+006
13321	3.7919e+006
13322	1.9236e+006
13322	2.2602e+006
13323	1.8474e+006
13323	2.7435e+006
13324	2.4347e+006
13324	2.4341e+006
13325	2.9127e+006
13325	1.0101e+006
13326	1.0292e+006
13326	3.4274e+006
13327	4.1651e+006
13327	4.3752e+006
13328	2.0604e+006
13328	2.7333e+006
13329	2.2707e+006
13329	2.0418e+006
13330	4.8516e+006
13330	3.7507e+006
13331	1.5835e+006
13331	1.3577e+006
13332	1.8532e+006
13332	3.3118e+006
13333	3.1283e+006
13333	3.018e+006
13334	2.7149e+006
13334	2.717e+006
13335	4.3165e+006
13335	3.9244e+006
13336	2.8288e+006
13336	3.063e+006
13337	1.7547e+006
13337	1.6595e+006
13338	6.2709e+005
13338	3.1472e+006
13339	1.7682e+006
13339	2.1537e+006
13340	1.175e+006
13340	2.368e+006
13341	2.5852e+006
13341	3.6157e+006
13342	3.6593e+006
13342	3.4504e+006
13343	2.5651e+006
13343	2.7643e+006
13344	3.9966e+006
13344	3.699e+006
13345	2.0636e+006
13345	1.8426e+006
13346	4.0812e+006
13346	4.0876e+006
13347	1.9183e+006
13347	9.9036e+005
13348	3.0912e+006
13348	2.3691e+006
13349	2.6612e+006
13349	3.1507e+006
13350	3.7754e+006
13350	2.0234e+006
13351	2.8023e+006
13351	3.1967e+006
13352	2.2722e+006
13352	2.7866e+006
13353	1.1847e+006
13353	2.5241e+006
13354	1.8691e+006
13354	3.2639e+006
13355	2.5038e+006
13355	1.841e+006
13356	1.6472e+006
13356	2.8735e+006
13357	3.0316e+006
13357	2.7411e+006
13358	3.5336e+006
13358	3.9152e+006
13359	1.691e+006
13359	2.4354e+006
13360	2.6782e+006
13360	2.9459e+006
13361	2.3085e+006
13361	2.5838e+006
13362	3.3759e+006
13362	3.9325e+006
13363	1.6859e+006
13363	1.5239e+006
13364	1.8942e+006
13364	1.9096e+006
13365	2.2403e+006
13365	3.5261e+006
13366	1.0214e+006
13366	8.7722e+005
13367	1.813e+006
13367	2.6903e+006
13368	2.7012e+006
13368	2.5524e+006
13369	1.0757e+006
13369	8.8192e+005
13370	1.1386e+006
13370	2.5081e+006
13371	2.0437e+006
13371	1.6648e+006
13372	3.0984e+006
13372	2.1519e+006
13373	2.7904e+006
13373	2.8545e+006
13374	8.2207e+005
13374	7.8463e+005
13375	2.4724e+006
13375	2.8875e+006
13376	1.5999e+006
13376	2.0309e+006
13377	1.381e+006
13377	1.6074e+006
13378	1.8026e+006
13378	2.0476e+006
13379	2.6521e+006
13379	1.5653e+006
13380	1.9387e+006
13380	1.8711e+006
13381	3.1665e+006
13381	2.5802e+006
13382	4.0116e+006
13382	3.2703e+006
13383	2.0747e+006
13383	1.7367e+006
13384	2.2823e+006
13384	3.1935e+006
13385	2.7642e+006
13385	2.8844e+006
13386	3.6948e+006
13386	2.8884e+006
13387	2.0403e+006
13387	1.792e+006
13388	2.6401e+006
13388	2.3875e+006
13389	8.1946e+005
13389	2.1454e+006
13390	2.9184e+006
13390	2.0855e+006
13391	4.3226e+006
13391	3.3676e+006
13392	2.725e+006
13392	2.6062e+006
13393	3.8461e+006
13393	3.4615e+006
13394	3.8005e+006
13394	4.5285e+006
13395	2.9415e+006
13395	1.8605e+006
13396	4.0095e+006
13396	3.3369e+006
13397	1.4541e+006
13397	2.0812e+006
13398	3.2178e+006
13398	4.3024e+006
13399	2.9214e+006
13399	2.5416e+006
13400	3.1097e+006
13400	4.141e+006
13401	2.9133e+006
13401	3.4641e+006
13402	1.6153e+006
13402	2.7611e+006
13403	1.6771e+006
13403	1.9949e+006
13404	2.3865e+006
13404	2.0577e+006
13405	3.7521e+006
13405	1.462e+006
13406	1.5602e+006
13406	2.8885e+006
13407	2.0341e+006
13407	3.1095e+006
13408	2.1979e+006
13408	2.382e+006
13409	2.1469e+006
13409	2.8346e+006
13410	2.459e+006
13410	2.3705e+006
13411	2.5507e+006
13411	2.9474e+006
13412	2.8011e+006
13412	2.4083e+006
13413	1.0615e+006
13413	2.3166e+006
13414	3.4918e+006
13414	4.5711e+006
13415	3.0139e+006
13415	4.6469e+006
13416	3.5733e+006
13416	2.1133e+006
13417	2.5686e+006
13417	9.0979e+005
13418	2.7076e+006
13418	1.8071e+006
13419	3.1926e+006
13419	3.3965e+006
13420	1.5673e+006
13420	2.0942e+006
13421	2.5167e+006
13421	2.1295e+006
13422	2.1546e+006
13422	2.2619e+006
13423	5.4993e+005
13423	7.0914e+005
13424	3.3213e+006
13424	2.9565e+006
13425	1.357e+006
13425	1.7666e+006
13426	2.2709e+006
13426	2.3703e+006
13427	2.5804e+006
13427	2.8595e+006
13428	2.2611e+006
13428	2.8739e+006
13429	1.2158e+006
13429	1.1917e+006
13430	2.1056e+006
13430	1.6121e+006
13431	1.3619e+006
13431	1.3992e+006
13432	1.1151e+006
13432	1.1709e+006
13433	1.4269e+006
13433	1.4173e+006
13434	1.6402e+006
13434	1.2059e+006
13435	1.3424e+006
13435	1.3246e+006
13436	1.9784e+006
13436	1.2469e+006
13437	1.6633e+006
13437	3.0839e+006
13438	4.2449e+006
13438	3.5211e+006
13439	3.1511e+006
13439	3.4095e+006
13440	4.4667e+006
13440	3.0861e+006
13441	1.0856e+006
13441	2.2735e+006
13442	2.245e+006
13442	1.5062e+006
13443	2.4947e+006
13443	2.918e+006
13444	2.1703e+006
13444	2.9778e+006
13445	2.188e+006
13445	2.2617e+006
13446	2.9815e+006
13446	2.9781e+006
13447	2.8791e+006
13447	2.9749e+006
13448	1.295e+006
13448	1.9394e+006
13449	1.5917e+006
13449	2.2679e+006
13450	2.5622e+006
13450	3.2144e+006
13451	1.8965e+006
13451	2.9938e+006
13452	2.8801e+006
13452	5.9364e+006
13453	2.277e+006
13453	2.1866e+006
13454	1.618e+006
13454	2.7577e+006
13455	1.6831e+006
13455	2.7843e+006
13456	2.131e+006
13456	2.7634e+006
13457	3.0024e+006
13457	2.6799e+006
13458	2.8466e+006
13458	3.7773e+006
13459	2.2027e+006
13459	1.8129e+006
13460	2.9001e+006
13460	2.5394e+006
13461	2.4056e+006
13461	4.2078e+006
13462	2.7517e+006
13462	3.7261e+006
13463	2.3145e+006
13463	2.7847e+006
13464	3.9259e+006
13464	3.5072e+006
13465	2.4813e+006
13465	2.1596e+006
13466	1.4822e+006
13466	1.9251e+006
13467	3.3619e+006
13467	2.5574e+006
13468	2.8288e+006
13468	2.217e+006
13469	1.4191e+006
13469	7.2839e+005
13470	2.4942e+006
13470	2.5533e+006
13471	4.4637e+006
13471	3.0795e+006
13472	3.3815e+006
13472	3.0674e+006
13473	2.9264e+006
13473	2.8218e+006
13474	3.6826e+006
13474	3.626e+006
13475	1.678e+006
13475	3.0629e+006
13476	3.0827e+006
13476	3.3735e+006
13477	2.4449e+006
13477	2.6943e+006
13478	3.6852e+006
13478	3.4222e+006
13479	2.4487e+006
13479	2.0994e+006
13480	2.4017e+006
13480	5.2642e+005
13481	1.982e+006
13481	1.907e+006
13482	2.3519e+006
13482	1.2729e+006
13483	3.0266e+006
13483	1.4462e+006
13484	3.9933e+006
13484	3.2477e+006
13485	5.4119e+006
13485	3.1121e+006
13486	1.097e+006
13486	2.4227e+006
13487	2.1259e+006
13487	2.6866e+006
13488	2.0316e+006
13488	1.5324e+006
13489	1.4806e+006
13489	1.275e+006
13490	2.7009e+006
13490	2.193e+006
13491	1.8914e+006
13491	1.5241e+006
13492	1.2956e+006
13492	2.7067e+006
13493	1.7033e+006
13493	1.2794e+006
13494	1.0657e+006
13494	1.944e+006
13495	2.1436e+006
13495	2.4626e+006
13496	1.2276e+006
13496	1.7635e+006
13497	1.0468e+006
13497	4.4891e+005
13498	1.1813e+006
13498	1.3865e+006
13499	1.114e+006
13499	7.5487e+005
13500	2.0902e+006
13500	2.0755e+006
13501	1.5455e+006
13501	85642
13502	2.053e+006
13502	1.6357e+006
13503	2.5035e+006
13503	1.6658e+006
13504	7.3303e+006
13504	5.6651e+006
13505	1.342e+006
13505	9.3657e+005
13506	1.2115e+006
13506	1.4387e+006
13507	6.2202e+005
13507	1.1391e+006
13508	1.3755e+006
13508	1.5492e+006
13509	2.1101e+006
13509	2.0961e+006
13510	9.2335e+005
13510	1.9444e+005
13511	1.6905e+005
13511	1.2073e+005
13512	4.1849e+005
13512	1.6006e+005
13513	9.2631e+005
13513	1.2184e+006
13514	8.5588e+005
13514	4.9685e+005
13515	5.7283e+005
13515	1.6735e+005
13516	9.5831e+005
13516	1.0944e+006
13517	2.3621e+006
13517	3.0424e+006
13518	3.0721e+006
13518	3.0891e+006
13519	2.6338e+006
13519	2.4768e+006
13520	1.1231e+006
13520	1.3705e+006
13521	1.5065e+006
13521	9.9626e+005
13522	2.1542e+006
13522	4.9621e+005
13523	2.7736e+006
13523	2.6176e+006
13524	1.4276e+006
13524	2.067e+006
13525	1.4893e+006
13525	1.9509e+006
13526	0.
13526	0.
13527	0.
13527	0.
13528	0.
13528	0.
13529	0.
13529	0.
13530	0.
13530	0.
13531	0.
13531	0.
13532	5.0657e+006
13532	4.1227e+006
13533	6.5573e+005
13533	3.326e+005
13534	2.2771e+006
13534	1.9331e+006
13535	7.9504e+005
13535	9.7041e+005
13536	6.5923e+005
13536	1.1524e+006
13537	0.
13537	0.
13538	0.
13538	0.
13539	3.0602e+006
13539	3.0271e+006
13540	2.3225e+006
13540	1.284e+006
13541	1.3529e+006
13541	6.534e+005
13542	0.
13542	0.
13543	1.1167e+006
13543	1.2192e+006
13544	0.
13544	0.
13545	0.
13545	0.
13546	0.
13546	0.
13547	8.7433e+005
13547	1.0015e+006
13548	3.8006e+005
13548	4.8291e+005
13549	0.
13549	0.
13550	0.
13550	0.
13551	27.962
13551	29.226
13552	4025.2
13552	1242.6
13553	3956.
13553	874.43
13554	9430.5
13554	9507.
13555	0.
13555	0.
13556	0.
13556	0.
13557	0.
13557	0.
13558	0.
13558	0.
13559	0.
13559	0.
13560	0.
13560	0.
13561	0.
13561	0.
13562	0.
13562	0.
13563	0.
13563	0.
13564	0.
13564	0.
13565	68918
13565	36093
13566	1.2662e+005
13566	1.7023e+005
13567	0.
13567	0.
13568	0.
13568	0.
13569	0.
13569	0.
13570	0.
13570	0.
13571	0.
13571	0.
13572	0.
13572	0.
13573	0.
13573	0.
13574	0.
13574	0.
13575	0.
13575	0.
13576	0.
13576	0.
13577	0.
13577	0.
13578	0.
13578	0.
13579	0.
13579	0.
13580	0.
13580	0.
13581	0.
13581	0.
13582	0.
13582	0.
13583	0.
13583	0.
13584	0.
13584	0.
13585	0.
13585	0.
13586	0.
13586	0.
13587	0.
13587	0.
13588	0.
13588	0.
13589	0.
13589	0.
13590	0.
13590	0.
13591	0.
13591	0.
13592	0.
13592	0.
13593	0.
13593	0.
13594	0.
13594	0.
13595	0.
13595	0.
13596	0.
13596	0.
13597	0.
13597	0.
13598	0.
13598	0.
13599	0.
13599	0.
13600	0.
13600	0.
13601	0.
13601	0.
13602	0.
13602	0.
13603	0.
13603	0.
13604	0.
13604	0.
13605	0.
13605	0.
13606	0.
13606	0.
13607	0.
13607	0.
13608	0.
13608	0.
13609	0.
13609	0.
13610	0.
13610	0.
13611	0.
13611	0.
13612	0.
13612	0.
13613	0.
13613	0.
13614	0.
13614	0.
13615	0.
13615	0.
13616	0.
13616	0.
13617	0.
13617	0.
13618	0.
13618	0.
13619	0.
13619	0.
13620	0.
13620	0.
13621	1.3493e+006
13621	9.6427e+005
13622	1.8172e+006
13622	1.7475e+006
13623	3.2085e+006
13623	3.2101e+006
13624	2.0798e+006
13624	4.0972e+006
13625	1.4222e+006
13625	1.5424e+006
13626	7.7127e+005
13626	1.3547e+006
13627	3.2462e+006
13627	2.4545e+006
13628	1.9836e+006
13628	9.8256e+005
13629	1.5469e+006
13629	2.2157e+006
13630	2.1407e+006
13630	1.0458e+006
13631	2.578e+006
13631	2.409e+005
13632	1.7899e+006
13632	7.9916e+005
13633	2.3504e+006
13633	1.4089e+006
13634	1.7613e+006
13634	1.3318e+006
13635	1.4674e+006
13635	1.2816e+006
13636	2.2129e+006
13636	1.8393e+006
13637	4.7846e+005
13637	8.602e+005
13638	6.5933e+005
13638	5.9911e+005
13639	7.2755e+005
13639	6.7724e+005
13640	1.5955e+006
13640	2.3199e+006
13641	1.6957e+006
13641	1.3855e+006
13642	1.6646e+006
13642	1.2971e+006
13643	1.7813e+006
13643	1.1614e+006
13644	1.2269e+006
13644	6.4449e+005
13645	1.2871e+006
13645	6.6102e+005
13646	1.4862e+006
13646	1.741e+006
13647	1.164e+006
13647	5.1663e+005
13648	1.6853e+006
13648	1.058e+006
13649	6.6933e+005
13649	1.0524e+006
13650	6.9438e+005
13650	2.8358e+005
13651	9.124e+005
13651	1.854e+005
13652	1.2116e+006
13652	7.229e+005
13653	1.2679e+006
13653	9.6423e+005
13654	8.7913e+005
13654	1.2072e+006
13655	1.0962e+006
13655	9.0106e+005
13656	1.5457e+006
13656	1.211e+006
13657	1.1163e+006
13657	3.9732e+005
13658	1.1943e+006
13658	5.9885e+005
13659	7.8266e+005
13659	9.1983e+005
13660	1.92e+006
13660	1.7643e+006
13661	8.66e+005
13661	6.5545e+005
13662	3.0866e+006
13662	1.6048e+006
13663	3.1431e+006
13663	1.5914e+006
13664	2.4981e+006
13664	2.6911e+006
13665	9.66e+005
13665	1.6164e+006
13666	3.8407e+005
13666	1.5929e+006
13667	3.0941e+006
13667	3.3657e+006
13668	1.8814e+006
13668	1.1735e+006
13669	1.4349e+006
13669	1.0529e+006
13670	1.2912e+006
13670	1.2926e+006
13671	3.2532e+006
13671	3.0416e+006
13672	2.1575e+006
13672	1.7014e+006
13673	1.5405e+006
13673	1.8639e+006
13674	1.7156e+006
13674	3.7663e+006
13675	1.353e+006
13675	1.0377e+006
13676	3.372e+006
13676	3.6477e+006
13677	1.3001e+006
13677	1.4798e+006
13678	3.9286e+006
13678	4.3251e+006
13679	2.3746e+006
13679	1.9031e+006
13680	4.3788e+006
13680	4.2665e+006
13681	1.1791e+006
13681	8.257e+005
13682	1.0985e+006
13682	1.0173e+006
13683	2.6776e+006
13683	3.0891e+006
13684	1.7009e+006
13684	2.3279e+006
13685	2.9968e+006
13685	2.8873e+006
13686	3.3265e+006
13686	3.8115e+006
13687	4.151e+006
13687	3.2664e+006
13688	2.1255e+006
13688	2.623e+006
13689	5.1995e+006
13689	5.1056e+006
13690	2.2839e+006
13690	2.5011e+006
13691	3.4785e+006
13691	2.8271e+006
13692	1.6625e+006
13692	2.5262e+006
13693	4.0733e+006
13693	3.7639e+006
13694	3.8065e+006
13694	3.9927e+006
13695	1.247e+006
13695	2.9197e+006
13696	1.3555e+006
13696	6.001e+005
13697	1.2193e+006
13697	8.1203e+005
13698	1.3274e+006
13698	1.6908e+006
13699	1.8144e+006
13699	1.2259e+006
13700	1.0346e+006
13700	1.1774e+006
13701	1.3233e+006
13701	1.346e+006
13702	8.4873e+005
13702	7.8151e+005
13703	3.165e+006
13703	1.788e+006
13704	2.084e+006
13704	2.0728e+006
13705	9.6027e+005
13705	9.9965e+005
13706	2.6726e+006
13706	1.3644e+006
13707	1.5818e+006
13707	1.5328e+006
13708	1.3226e+006
13708	1.2275e+006
13709	1.5734e+006
13709	1.2109e+006
13710	1.7508e+006
13710	1.4208e+006
13711	1.3403e+006
13711	1.7514e+006
13712	3.8608e+006
13712	3.2245e+006
13713	1.2771e+006
13713	1.595e+006
13714	9.309e+005
13714	7.6843e+005
13715	1.1851e+006
13715	1.4522e+006
13716	8.2854e+005
13716	1.3633e+006
13717	1.9915e+006
13717	2.1474e+006
13718	4.4664e+005
13718	8.5492e+005
13719	1.0425e+006
13719	1.0465e+006
13720	1.5799e+006
13720	1.4812e+006
13721	2.0171e+006
13721	4.3508e+006
13722	3.8378e+006
13722	4.1855e+006
13723	3.5437e+006
13723	3.7307e+006
13724	4.1279e+006
13724	4.1863e+006
13725	1.4641e+006
13725	1.6533e+006
13726	2.052e+006
13726	1.9812e+006
13727	3.8788e+006
13727	3.9355e+006
13728	3.9782e+006
13728	3.846e+006
13729	2.3088e+006
13729	1.9037e+006
13730	2.2575e+006
13730	3.5253e+006
13731	2.0193e+006
13731	2.0753e+006
13732	2.572e+006
13732	3.389e+006
13733	3.4892e+006
13733	4.471e+006
13734	2.8187e+006
13734	2.5673e+006
13735	2.842e+006
13735	2.0442e+006
13736	1.4744e+006
13736	1.8298e+006
13737	2.8278e+006
13737	3.1376e+006
13738	1.5608e+006
13738	1.0993e+006
13739	2.2654e+006
13739	2.3342e+006
13740	3.0255e+006
13740	2.8816e+006
13741	9.345e+005
13741	1.7195e+006
13742	1.5795e+006
13742	8.8176e+005
13743	1.5316e+006
13743	1.0548e+006
13744	7.5858e+005
13744	1.0529e+006
13745	7.2844e+005
13745	1.3549e+006
13746	2.3909e+006
13746	1.7423e+006
13747	1.4099e+006
13747	2.011e+006
13748	1.0091e+006
13748	1.3364e+006
13749	1.0575e+006
13749	9.6473e+005
13750	2.5853e+006
13750	1.3352e+006
13751	1.3259e+006
13751	1.3156e+006
13752	1.4535e+006
13752	8.9119e+005
13753	7.5297e+005
13753	6.5579e+005
13754	3.9765e+006
13754	3.3677e+006
13755	2.1803e+006
13755	2.4205e+006
13756	2.6317e+006
13756	3.2676e+006
13757	2.4297e+006
13757	2.1148e+006
13758	7.242e+005
13758	3.3528e+005
13759	9.4525e+005
13759	9.7906e+005
13760	1.3304e+006
13760	1.4528e+006
13761	3.6228e+006
13761	4.8832e+006
13762	4.4047e+006
13762	4.9826e+006
13763	3.1115e+006
13763	2.2538e+006
13764	2.3125e+006
13764	2.5087e+006
13765	1.4629e+006
13765	2.09e+006
13766	2.9126e+006
13766	3.7906e+006
13767	2.6859e+006
13767	1.3797e+006
13768	3.3845e+006
13768	3.8224e+006
13769	3.1878e+006
13769	3.9329e+006
13770	3.5736e+006
13770	3.817e+006
13771	3.814e+006
13771	4.71e+006
13772	2.8054e+006
13772	3.5943e+006
13773	2.7119e+006
13773	2.0868e+006
13774	2.4094e+006
13774	2.6596e+006
13775	1.9143e+006
13775	2.1196e+006
13776	2.8196e+006
13776	2.8565e+006
13777	2.2545e+006
13777	3.3961e+006
13778	3.6108e+006
13778	3.6807e+006
13779	3.9241e+006
13779	2.1554e+006
13780	4.3332e+006
13780	4.1991e+006
13781	3.9048e+006
13781	3.2535e+006
13782	3.6366e+006
13782	1.5547e+006
13783	4.292e+006
13783	4.4703e+006
13784	3.3567e+006
13784	2.688e+006
13785	2.6451e+006
13785	1.8298e+006
13786	3.4616e+006
13786	3.283e+006
13787	3.3316e+006
13787	3.1407e+006
13788	1.7405e+006
13788	1.2087e+006
13789	2.5814e+006
13789	1.8019e+006
13790	1.9376e+006
13790	6.2143e+005
13791	1.4288e+006
13791	1.1219e+006
13792	2.2213e+006
13792	1.7482e+006
13793	1.3898e+006
13793	1.4353e+006
13794	1.009e+006
13794	1.0371e+006
13795	1.596e+006
13795	2.0236e+006
13796	2.2079e+006
13796	1.5837e+006
13797	1.6864e+006
13797	1.4861e+006
13798	2.632e+006
13798	2.3723e+006
13799	8.3975e+005
13799	2.3587e+006
13800	1.3956e+006
13800	1.3815e+006
13801	1.2175e+006
13801	1.0784e+006
13802	1.7814e+006
13802	2.12e+006
13803	6.6312e+005
13803	1.0874e+006
13804	7.2939e+005
13804	6.8195e+005
13805	4.5245e+005
13805	1.216e+006
13806	1.9319e+006
13806	1.0047e+006
13807	1.9669e+006
13807	3.356e+006
13808	2.034e+006
13808	2.4041e+006
13809	2.9292e+006
13809	3.1979e+006
13810	4.9348e+006
13810	5.2129e+006
13811	3.7956e+006
13811	4.7769e+006
13812	2.9661e+006
13812	3.5283e+006
13813	2.7909e+006
13813	2.405e+006
13814	2.3403e+006
13814	1.2792e+006
13815	9.6632e+005
13815	1.3229e+006
13816	3.6289e+006
13816	3.8442e+006
13817	2.5285e+006
13817	3.7438e+006
13818	1.4385e+006
13818	1.3828e+006
13819	3.9155e+006
13819	4.206e+006
13820	5.1849e+006
13820	3.8923e+006
13821	5.1755e+006
13821	3.8335e+006
13822	1.8432e+006
13822	2.9757e+006
13823	3.9392e+006
13823	5.3439e+006
13824	4.2041e+006
13824	4.0967e+006
13825	4.3907e+006
13825	1.6476e+006
13826	2.661e+006
13826	3.6144e+006
13827	2.1878e+006
13827	2.9115e+006
13828	3.6899e+006
13828	4.9662e+006
13829	3.0296e+006
13829	3.1645e+006
13830	2.5806e+006
13830	3.3369e+006
13831	1.4682e+006
13831	1.1885e+006
13832	1.0027e+006
13832	1.6564e+006
13833	2.7805e+006
13833	2.7033e+006
13834	3.245e+006
13834	3.1123e+006
13835	1.3524e+006
13835	1.5835e+006
13836	2.3087e+006
13836	2.4476e+006
13837	1.9175e+006
13837	1.215e+006
13838	7.2614e+005
13838	5.0836e+005
13839	1.2656e+006
13839	1.1112e+006
13840	1.0541e+006
13840	1.0373e+006
13841	1.3577e+006
13841	1.2288e+006
13842	1.4328e+006
13842	2.1745e+006
13843	2.0616e+006
13843	2.2715e+006
13844	9.3256e+005
13844	9.8847e+005
13845	2.8032e+006
13845	1.6895e+006
13846	1.2242e+006
13846	1.4758e+006
13847	1.1612e+006
13847	7.9048e+005
13848	1.5917e+006
13848	1.7217e+006
13849	1.2478e+006
13849	1.2626e+006
13850	1.0678e+006
13850	9.5855e+005
13851	3.2513e+006
13851	2.5912e+006
13852	1.5858e+006
13852	1.3903e+006
13853	2.7162e+006
13853	1.4364e+006
13854	2.0659e+006
13854	1.6119e+006
13855	1.1363e+006
13855	2.7717e+006
13856	1.7451e+006
13856	2.6952e+005
13857	2.2995e+006
13857	1.5307e+006
13858	3.8466e+006
13858	3.6876e+006
13859	1.7421e+006
13859	5.7341e+005
13860	1.3923e+006
13860	1.119e+006
13861	3.4412e+006
13861	1.7122e+006
13862	1.8454e+006
13862	1.6614e+006
13863	3.9386e+006
13863	3.8829e+006
13864	2.2554e+006
13864	2.6454e+006
13865	1.621e+006
13865	2.5363e+006
13866	2.0667e+006
13866	1.4784e+006
13867	1.8085e+006
13867	3.0648e+006
13868	1.1829e+006
13868	6.4514e+005
13869	2.2298e+006
13869	2.5058e+006
13870	2.5159e+006
13870	1.3706e+006
13871	2.3884e+006
13871	2.338e+006
13872	1.6207e+006
13872	1.6266e+006
13873	3.5326e+006
13873	3.7676e+006
13874	6.0517e+005
13874	1.6881e+005
13875	4.0292e+005
13875	8.6296e+005
13876	9.4047e+005
13876	5.7011e+005
13877	2.0184e+006
13877	1.2081e+006
13878	0.
13878	0.
13879	1.854e+006
13879	2.5657e+006
13880	1.6749e+006
13880	1.6323e+006
13881	0.
13881	0.
13882	0.
13882	0.
13883	0.
13883	0.
13884	0.
13884	0.
13885	0.
13885	0.
13886	0.
13886	0.
13887	30935
13887	30969
13888	3.8632e+005
13888	4.0094e+005
13889	0.
13889	0.
13890	0.
13890	0.
13891	0.
13891	0.
13892	0.
13892	0.
13893	0.
13893	0.
13894	0.
13894	0.
13895	0.
13895	0.
13896	0.
13896	0.
13897	0.
13897	0.
13898	0.
13898	0.
13899	0.
13899	0.
13900	0.
13900	0.
13901	0.
13901	0.
13902	0.
13902	0.
13903	0.
13903	0.
13904	0.
13904	0.
13905	0.
13905	0.
13906	0.
13906	0.
13907	0.
13907	0.
13908	0.
13908	0.
13909	0.
13909	0.
13910	0.
13910	0.
13911	0.
13911	0.
13912	0.
13912	0.
13913	0.
13913	0.
13914	0.
13914	0.
13915	0.
13915	0.
13916	0.
13916	0.
13917	0.
13917	0.
13918	0.
13918	0.
13919	0.
13919	0.
13920	0.
13920	0.
13921	0.
13921	0.
13922	0.
13922	0.
13923	1.9481e+006
13923	2.0037e+006
13924	1.8671e+006
13924	2.0889e+006
13925	2.5277e+006
13925	2.0026e+006
13926	1.7096e+006
13926	1.909e+006
13927	1.4882e+006
13927	2.1068e+006
13928	1.6278e+006
13928	1.6632e+006
13929	1.7328e+006
13929	1.2123e+006
13930	1.3401e+006
13930	1.337e+006
13931	1.0093e+006
13931	1.1627e+006
13932	1.9452e+006
13932	1.354e+006
13933	9.8115e+005
13933	1.1301e+006
13934	1.6536e+006
13934	2.2075e+006
13935	2.0871e+006
13935	1.8015e+006
13936	1.9572e+006
13936	1.364e+006
13937	1.6558e+006
13937	1.4592e+006
13938	2.6163e+006
13938	2.836e+006
13939	2.5264e+006
13939	3.207e+006
13940	1.1135e+006
13940	1.2004e+006
13941	1.1627e+006
13941	2.2011e+006
13942	2.4218e+006
13942	3.0817e+006
13943	4.0597e+006
13943	5.0349e+006
13944	2.8758e+006
13944	2.7954e+006
13945	8.7012e+005
13945	1.1545e+006
13946	1.4582e+006
13946	1.1458e+006
13947	3.2756e+006
13947	2.8564e+006
13948	3.6485e+006
13948	3.0098e+006
13949	2.7341e+006
13949	2.2164e+006
13950	2.9004e+006
13950	2.7331e+006
13951	2.6468e+006
13951	3.1591e+006
13952	1.3719e+006
13952	9.0103e+005
13953	1.7915e+006
13953	1.9653e+006
13954	1.664e+006
13954	1.2044e+006
13955	2.4761e+006
13955	1.7728e+006
13956	1.4024e+006
13956	1.3968e+006
13957	1.9259e+006
13957	2.5363e+006
13958	2.7469e+006
13958	2.9826e+006
13959	2.7954e+006
13959	2.711e+006
13960	2.2454e+006
13960	1.97e+006
13961	1.4739e+006
13961	2.2529e+006
13962	1.8854e+006
13962	2.4244e+006
13963	3.0679e+006
13963	1.4475e+006
13964	1.7235e+006
13964	6.5765e+005
13965	6.987e+005
13965	1.5988e+006
13966	1.8249e+006
13966	5.8123e+005
13967	2.24e+006
13967	1.6466e+006
13968	1.9361e+006
13968	1.3364e+006
13969	2.7621e+006
13969	5.1133e+005
13970	4.0805e+006
13970	3.9301e+006
13971	2.5534e+006
13971	2.1962e+006
13972	1.2422e+006
13972	1.0948e+006
13973	1.2071e+006
13973	7.7505e+005
13974	9.0753e+005
13974	1.5926e+006
13975	1.8632e+006
13975	2.6929e+006
13976	1.1543e+006
13976	8.1645e+005
13977	2.9187e+006
13977	2.1323e+006
13978	2.1705e+006
13978	2.1022e+006
13979	1.8462e+006
13979	2.3438e+006
13980	2.3079e+006
13980	2.2572e+006
13981	2.105e+006
13981	2.0034e+006
13982	5.6368e+005
13982	1.0071e+006
13983	1.8834e+006
13983	2.4816e+006
13984	1.6604e+006
13984	1.2328e+006
13985	8.7429e+005
13985	8.025e+005
13986	1.0141e+006
13986	8.5853e+005
13987	3.467e+006
13987	5.2616e+006
13988	2.6423e+006
13988	3.2075e+006
13989	4.3859e+006
13989	4.9398e+006
13990	2.5859e+006
13990	3.1721e+006
13991	4.8437e+006
13991	3.936e+006
13992	2.5446e+006
13992	2.1762e+006
13993	1.8057e+006
13993	1.3822e+006
13994	3.7983e+006
13994	4.126e+006
13995	3.2642e+006
13995	3.3197e+006
13996	2.9393e+006
13996	2.7404e+006
13997	3.8336e+006
13997	4.0294e+006
13998	4.1478e+006
13998	5.2527e+006
13999	3.2973e+006
13999	3.6223e+006
14000	2.652e+006
14000	3.2018e+006
14001	5.0602e+006
14001	3.7704e+006
14002	3.8329e+006
14002	3.0942e+006
14003	3.4546e+006
14003	3.6093e+006
14004	4.6347e+006
14004	4.6544e+006
14005	4.1516e+006
14005	3.6917e+006
14006	1.4674e+006
14006	1.0137e+006
14007	1.2309e+006
14007	1.4112e+006
14008	4.2246e+006
14008	3.4237e+006
14009	2.7243e+006
14009	3.0521e+006
14010	5.077e+006
14010	4.8803e+006
14011	3.6831e+006
14011	3.2677e+006
14012	5.1027e+006
14012	2.5001e+006
14013	4.6731e+006
14013	4.2011e+006
14014	2.5269e+006
14014	1.6038e+006
14015	1.4733e+006
14015	1.0142e+006
14016	2.4244e+006
14016	2.9231e+006
14017	3.2335e+006
14017	2.402e+006
14018	3.5904e+006
14018	3.2809e+006
14019	4.0487e+006
14019	3.0766e+006
14020	1.5412e+006
14020	1.1951e+006
14021	1.7204e+006
14021	1.2765e+006
14022	1.4756e+006
14022	2.5567e+006
14023	1.1655e+006
14023	1.897e+006
14024	3.3074e+006
14024	3.5665e+006
14025	1.9293e+006
14025	1.7291e+006
14026	5.2144e+006
14026	4.4076e+006
14027	5.258e+006
14027	3.6694e+006
14028	5.2379e+006
14028	5.3639e+006
14029	1.871e+006
14029	1.3522e+006
14030	1.447e+006
14030	1.2383e+006
14031	2.5522e+006
14031	1.732e+006
14032	1.5047e+006
14032	1.196e+006
14033	3.3155e+006
14033	3.1121e+006
14034	1.2781e+006
14034	1.0582e+006
14035	4.9603e+006
14035	5.1737e+006
14036	1.515e+006
14036	1.1804e+006
14037	3.4353e+006
14037	3.7558e+006
14038	9.6457e+005
14038	1.204e+006
14039	2.3284e+006
14039	1.8896e+006
14040	3.1727e+006
14040	2.6722e+006
14041	2.9076e+006
14041	3.6983e+006
14042	4.5188e+006
14042	3.4417e+006
14043	2.5432e+006
14043	2.1941e+006
14044	3.1259e+006
14044	2.2535e+006
14045	1.2293e+006
14045	9.6642e+005
14046	5.4235e+005
14046	8.8975e+005
14047	1.3289e+006
14047	1.1978e+006
14048	4.7142e+006
14048	3.5437e+006
14049	3.3848e+006
14049	3.4293e+006
14050	2.4972e+006
14050	3.6499e+006
14051	3.3211e+006
14051	4.7026e+006
14052	4.7562e+006
14052	5.4145e+006
14053	4.4973e+006
14053	3.627e+006
14054	3.2863e+006
14054	2.1025e+006
14055	3.7546e+006
14055	3.4236e+006
14056	4.3952e+006
14056	4.8189e+006
14057	2.3065e+006
14057	2.4342e+006
14058	4.1918e+006
14058	1.9324e+006
14059	2.6953e+006
14059	2.1136e+006
14060	2.3608e+006
14060	4.4797e+006
14061	5.7797e+006
14061	6.5465e+006
14062	4.1185e+006
14062	4.0218e+006
14063	3.3076e+006
14063	4.435e+006
14064	4.9546e+006
14064	4.9024e+006
14065	3.7981e+006
14065	4.0315e+006
14066	3.1397e+006
14066	2.9212e+006
14067	3.9395e+006
14067	3.7837e+006
14068	3.7963e+006
14068	3.0623e+006
14069	3.479e+006
14069	4.2749e+006
14070	3.2531e+006
14070	2.5048e+006
14071	3.2976e+006
14071	2.5545e+006
14072	4.0347e+006
14072	4.3847e+006
14073	3.9768e+006
14073	2.9112e+006
14074	2.8931e+006
14074	2.0658e+006
14075	3.1541e+006
14075	3.9385e+006
14076	4.1273e+006
14076	4.0601e+006
14077	2.1875e+006
14077	1.8525e+006
14078	3.9326e+006
14078	4.2567e+006
14079	4.1133e+006
14079	4.9637e+006
14080	4.3315e+006
14080	3.1453e+006
14081	3.9329e+006
14081	2.9e+006
14082	1.8869e+006
14082	1.8983e+006
14083	3.6637e+006
14083	4.2298e+006
14084	2.8555e+006
14084	2.33e+006
14085	6.4845e+006
14085	4.3813e+006
14086	5.1496e+006
14086	3.681e+006
14087	3.2078e+006
14087	3.506e+006
14088	3.2963e+006
14088	3.8867e+006
14089	4.2705e+006
14089	5.4691e+006
14090	3.0142e+006
14090	3.253e+006
14091	4.7421e+006
14091	2.9171e+006
14092	4.3971e+006
14092	3.9819e+006
14093	2.11e+006
14093	1.7085e+006
14094	3.5029e+006
14094	2.6788e+006
14095	1.4153e+006
14095	1.748e+006
14096	1.9322e+006
14096	1.1979e+006
14097	1.0968e+006
14097	1.1078e+006
14098	2.3716e+006
14098	2.4995e+006
14099	3.4941e+006
14099	4.6025e+006
14100	3.8031e+006
14100	3.7218e+006
14101	4.5455e+006
14101	4.0922e+006
14102	3.417e+006
14102	3.6096e+006
14103	1.2245e+006
14103	8.9443e+005
14104	3.8292e+006
14104	3.9134e+006
14105	4.3189e+006
14105	4.3883e+006
14106	1.9157e+006
14106	2.5903e+006
14107	1.845e+006
14107	1.5969e+006
14108	1.7573e+006
14108	8.4405e+005
14109	1.3901e+006
14109	1.2604e+006
14110	1.2397e+006
14110	1.294e+006
14111	2.1987e+006
14111	2.0858e+006
14112	1.5589e+006
14112	8.5628e+005
14113	2.28e+006
14113	3.0392e+006
14114	7.0299e+005
14114	8.7446e+005
14115	1.0673e+006
14115	1.1136e+006
14116	4.0178e+006
14116	4.2652e+006
14117	3.7736e+006
14117	3.8346e+006
14118	2.4325e+006
14118	1.8826e+006
14119	4.5305e+006
14119	3.0083e+006
14120	3.1061e+006
14120	1.9121e+006
14121	1.1955e+006
14121	1.297e+006
14122	2.6186e+006
14122	2.6307e+006
14123	3.0061e+006
14123	2.8912e+006
14124	1.6765e+006
14124	1.374e+006
14125	2.5137e+006
14125	1.4338e+006
14126	3.7498e+006
14126	1.5533e+006
14127	5.8813e+006
14127	3.8318e+006
14128	1.5492e+006
14128	1.393e+006
14129	1.1108e+006
14129	7.6332e+005
14130	1.6793e+006
14130	1.5766e+006
14131	2.0625e+006
14131	2.242e+006
14132	3.6761e+006
14132	3.2543e+006
14133	2.1406e+006
14133	1.4301e+006
14134	5.8975e+005
14134	7.0423e+005
14135	3.1329e+005
14135	6.7898e+005
14136	2.1747e+006
14136	3.2155e+006
14137	4.5023e+006
14137	3.0895e+006
14138	4.0981e+006
14138	3.5377e+006
14139	3.1565e+006
14139	3.8478e+006
14140	1.119e+006
14140	2.9866e+006
14141	3.757e+006
14141	2.4316e+006
14142	3.4926e+006
14142	4.7658e+006
14143	2.1656e+006
14143	2.9808e+006
14144	4.54e+006
14144	4.3809e+006
14145	3.0573e+006
14145	3.6863e+006
14146	2.9677e+006
14146	3.6654e+006
14147	3.4791e+006
14147	3.3991e+006
14148	6.2186e+006
14148	5.6539e+006
14149	4.0155e+006
14149	3.2568e+006
14150	4.9834e+006
14150	4.6079e+006
14151	5.6794e+006
14151	6.4017e+006
14152	3.823e+006
14152	4.0569e+006
14153	1.7723e+006
14153	2.2877e+006
14154	4.2674e+006
14154	5.4276e+006
14155	2.8882e+006
14155	3.2853e+006
14156	3.4514e+006
14156	2.7071e+006
14157	3.8803e+006
14157	3.638e+006
14158	3.6083e+006
14158	4.0434e+006
14159	3.7951e+006
14159	3.1098e+006
14160	6.9988e+006
14160	5.7598e+006
14161	2.4372e+006
14161	2.4462e+006
14162	3.1844e+006
14162	3.2851e+006
14163	3.5672e+006
14163	2.5526e+006
14164	2.4835e+006
14164	3.2827e+006
14165	5.0818e+006
14165	3.9473e+006
14166	3.2923e+006
14166	2.8528e+006
14167	4.9157e+006
14167	4.8101e+006
14168	3.9644e+006
14168	4.4935e+006
14169	3.8147e+006
14169	2.9686e+006
14170	1.3688e+006
14170	1.0363e+006
14171	1.5602e+006
14171	2.4742e+006
14172	1.3375e+006
14172	6.1783e+005
14173	1.4268e+006
14173	2.288e+006
14174	3.0578e+006
14174	3.1191e+006
14175	3.0043e+006
14175	2.2917e+006
14176	1.6583e+006
14176	2.3383e+006
14177	9.7267e+005
14177	1.2045e+006
14178	1.2734e+006
14178	1.9809e+006
14179	4.6417e+006
14179	3.9114e+006
14180	4.9284e+006
14180	6.1385e+006
14181	5.5183e+006
14181	3.3607e+006
14182	1.8761e+006
14182	2.3931e+006
14183	2.4357e+006
14183	1.0824e+006
14184	1.9422e+006
14184	1.256e+006
14185	4.5878e+006
14185	4.0838e+006
14186	2.9406e+006
14186	3.5755e+006
14187	1.2826e+006
14187	1.4763e+006
14188	1.0684e+006
14188	1.1347e+006
14189	1.4913e+006
14189	1.5294e+006
14190	3.3775e+006
14190	2.3548e+006
14191	2.3695e+006
14191	2.807e+006
14192	4.6557e+006
14192	4.9932e+006
14193	5.0946e+006
14193	4.4931e+006
14194	2.6181e+006
14194	1.841e+006
14195	1.2911e+006
14195	6.7641e+005
14196	1.9232e+006
14196	2.4213e+006
14197	5.0101e+006
14197	4.1222e+006
14198	3.4196e+006
14198	3.1508e+006
14199	2.965e+006
14199	1.9205e+006
14200	5.7308e+006
14200	7.573e+006
14201	1.6885e+006
14201	1.9548e+006
14202	1.0749e+006
14202	1.0578e+006
14203	1.8875e+006
14203	2.1419e+006
14204	1.4472e+006
14204	1.0352e+006
14205	1.0295e+006
14205	1.8262e+006
14206	1.1067e+006
14206	7.6132e+005
14207	2.9427e+006
14207	2.9473e+006
14208	2.8978e+006
14208	3.0151e+006
14209	1.6246e+006
14209	1.6488e+006
14210	2.874e+006
14210	1.4526e+006
14211	1.2544e+006
14211	1.4673e+006
14212	3.0429e+006
14212	3.7452e+006
14213	3.2316e+006
14213	3.8763e+006
14214	2.2934e+006
14214	3.2334e+006
14215	3.8621e+006
14215	3.5875e+006
14216	4.7187e+006
14216	2.664e+006
14217	4.1564e+006
14217	3.1447e+006
14218	3.5926e+006
14218	3.9075e+006
14219	3.5528e+006
14219	3.0212e+006
14220	3.5387e+006
14220	3.8521e+006
14221	2.3642e+006
14221	3.245e+006
14222	5.1181e+006
14222	5.2106e+006
14223	2.6264e+006
14223	5.3401e+006
14224	2.2292e+006
14224	2.898e+006
14225	2.3959e+006
14225	4.0903e+006
14226	7.3321e+006
14226	6.4659e+006
14227	3.689e+006
14227	3.5397e+006
14228	5.5538e+006
14228	5.0013e+006
14229	6.808e+006
14229	5.2215e+006
14230	3.6093e+006
14230	3.18e+006
14231	2.4354e+006
14231	1.8829e+006
14232	3.3539e+006
14232	3.625e+006
14233	4.1757e+006
14233	2.8254e+006
14234	4.0652e+006
14234	3.6945e+006
14235	5.1634e+006
14235	4.4977e+006
14236	7.6111e+006
14236	7.8117e+006
14237	2.4856e+006
14237	3.1744e+006
14238	3.7218e+006
14238	4.2814e+006
14239	2.5246e+006
14239	3.4854e+006
14240	3.769e+006
14240	4.792e+006
14241	3.5296e+006
14241	4.2784e+006
14242	3.9934e+006
14242	3.7737e+006
14243	2.0767e+006
14243	2.5641e+006
14244	2.8635e+006
14244	3.316e+006
14245	5.4559e+006
14245	3.1172e+006
14246	3.6501e+006
14246	3.6471e+006
14247	5.855e+006
14247	6.2584e+006
14248	2.7793e+006
14248	2.8567e+006
14249	3.4655e+006
14249	3.2082e+006
14250	3.0353e+006
14250	3.834e+006
14251	4.8274e+006
14251	4.293e+006
14252	3.4226e+006
14252	3.4954e+006
14253	3.2353e+006
14253	4.3108e+006
14254	4.8896e+006
14254	4.5107e+006
14255	8.941e+005
14255	1.4816e+006
14256	9.0503e+005
14256	1.4131e+006
14257	2.7822e+006
14257	2.1936e+006
14258	2.4457e+006
14258	1.268e+006
14259	4.3464e+006
14259	3.4521e+006
14260	1.8752e+006
14260	1.2826e+006
14261	1.6541e+006
14261	1.0971e+006
14262	1.8001e+006
14262	9.8199e+005
14263	2.0869e+006
14263	3.4326e+006
14264	3.5665e+006
14264	3.3852e+006
14265	2.5375e+006
14265	2.7177e+006
14266	1.1791e+006
14266	1.0015e+006
14267	3.4311e+006
14267	3.8995e+006
14268	1.5921e+006
14268	1.3555e+006
14269	1.3895e+006
14269	1.0537e+006
14270	1.6565e+006
14270	1.7326e+006
14271	1.7422e+006
14271	7.4581e+005
14272	3.4792e+006
14272	2.9074e+006
14273	2.1589e+006
14273	2.8508e+006
14274	4.6717e+006
14274	3.4848e+006
14275	6.765e+006
14275	3.9149e+006
14276	2.7664e+006
14276	1.02e+006
14277	4.192e+006
14277	3.635e+006
14278	3.3588e+006
14278	7.4848e+005
14279	1.5799e+006
14279	1.6463e+006
14280	7.9203e+005
14280	1.9893e+006
14281	2.8077e+006
14281	2.6871e+006
14282	3.1239e+006
14282	2.9512e+006
14283	3.4117e+006
14283	4.1905e+006
14284	2.6289e+006
14284	3.4785e+006
14285	1.3207e+006
14285	4.6251e+005
14286	4.0498e+006
14286	3.792e+006
14287	9.9542e+005
14287	1.5229e+006
14288	1.7254e+006
14288	9.4695e+005
14289	2.3098e+006
14289	2.2183e+006
14290	3.2061e+006
14290	3.6893e+006
14291	1.7843e+006
14291	1.9827e+006
14292	2.5832e+006
14292	2.9522e+006
14293	2.0198e+006
14293	3.4362e+006
14294	3.8077e+006
14294	1.9837e+006
14295	4.5484e+006
14295	2.8179e+006
14296	3.4103e+006
14296	3.1462e+006
14297	2.184e+006
14297	2.5939e+006
14298	5.082e+005
14298	8.931e+005
14299	1.2644e+006
14299	1.3516e+006
14300	11261
14300	22805
14301	6.8392e+005
14301	1.1202e+005
14302	0.
14302	0.
14303	6.5473e+005
14303	7.9072e+005
14304	0.
14304	0.
14305	6.9567e+005
14305	3.1377e+005
14306	99220
14306	78620
14307	1.3156e+005
14307	2.1302e+005
14308	0.
14308	0.
14309	0.
14309	0.
14310	7.5999e+005
14310	9.0865e+005
14311	1.4071e+006
14311	1.6917e+006
14312	0.
14312	0.
14313	0.
14313	0.
14314	0.
14314	0.
14315	0.
14315	0.
14316	0.
14316	0.
14317	0.
14317	0.
14318	0.
14318	0.
14319	53353
14319	11273
14320	0.
14320	0.
14321	0.
14321	0.
14322	0.
14322	0.
14323	0.
14323	0.
14324	0.
14324	0.
14325	0.
14325	0.
14326	0.
14326	0.
14327	0.
14327	0.
14328	0.
14328	0.
14329	0.
14329	0.
14330	0.
14330	0.
14331	0.
14331	0.
14332	0.
14332	0.
14333	0.
14333	0.
14334	0.
14334	0.
14335	0.
14335	0.
14336	0.
14336	0.
14337	0.
14337	0.
14338	0.
14338	0.
14339	0.
14339	0.
14340	0.
14340	0.
14341	0.
14341	0.
14342	0.
14342	0.
14343	0.
14343	0.
14344	0.
14344	0.
14345	0.
14345	0.
14346	0.
14346	0.
14347	0.
14347	0.
14348	0.
14348	0.
14349	0.
14349	0.
14350	0.
14350	0.
14351	0.
14351	0.
14352	0.
14352	0.
14353	0.
14353	0.
14354	0.
14354	0.
14355	0.
14355	0.
14356	0.
14356	0.
14357	0.
14357	0.
14358	0.
14358	0.
14359	0.
14359	0.
14360	0.
14360	0.
14361	0.
14361	0.
14362	0.
14362	0.
14363	0.
14363	0.
14364	0.
14364	0.
14365	0.
14365	0.
14366	0.
14366	0.
14367	0.
14367	0.
14368	0.
14368	0.
14369	0.
14369	0.
14370	0.
14370	0.
14371	0.
14371	0.
14372	0.
14372	0.
14373	0.
14373	0.
14374	0.
14374	0.
14375	1.9946e+006
14375	1.8029e+006
14376	1.5037e+006
14376	8.9747e+005
14377	1.7879e+006
14377	2.2458e+006
14378	1.6672e+006
14378	3.4422e+006
14379	2.0921e+006
14379	4.8287e+006
14380	1.5692e+006
14380	2.1896e+006
14381	1.784e+006
14381	8.2561e+005
14382	2.0433e+006
14382	1.7184e+006
14383	9.2704e+005
14383	7.5361e+005
14384	2.7227e+006
14384	2.7023e+006
14385	2.0278e+006
14385	1.703e+006
14386	1.061e+006
14386	8.4781e+005
14387	1.1779e+006
14387	7.962e+005
14388	1.7767e+006
14388	7.0821e+005
14389	1.8837e+006
14389	1.8267e+006
14390	1.897e+006
14390	1.2579e+006
14391	1.4625e+006
14391	1.0956e+006
14392	1.3371e+006
14392	1.493e+006
14393	5.6083e+005
14393	1.7941e+006
14394	1.3487e+006
14394	5.9955e+005
14395	1.7942e+006
14395	1.7176e+006
14396	9.6679e+005
14396	1.0124e+006
14397	1.4407e+006
14397	1.6947e+006
14398	2.1821e+006
14398	2.637e+006
14399	1.5062e+006
14399	1.4432e+006
14400	1.6427e+006
14400	1.3728e+006
14401	1.4517e+006
14401	1.4483e+006
14402	2.8454e+006
14402	3.2191e+006
14403	6.6989e+005
14403	1.3618e+006
14404	3.1146e+006
14404	3.0046e+006
14405	3.2357e+006
14405	2.4336e+006
14406	1.8006e+006
14406	1.5781e+006
14407	1.1032e+006
14407	1.2982e+006
14408	1.2052e+006
14408	1.4458e+006
14409	1.977e+006
14409	1.581e+006
14410	1.5174e+006
14410	1.7319e+006
14411	1.508e+006
14411	1.3081e+006
14412	1.3781e+006
14412	8.9029e+005
14413	1.1182e+006
14413	1.0373e+006
14414	1.267e+006
14414	5.9853e+005
14415	1.5838e+006
14415	1.1322e+006
14416	2.1897e+006
14416	1.3532e+006
14417	1.9682e+006
14417	1.6515e+006
14418	3.9728e+005
14418	1.1842e+006
14419	6.9312e+005
14419	7.0033e+005
14420	8.1297e+005
14420	2.2266e+006
14421	9.9298e+005
14421	1.0918e+006
14422	2.9831e+006
14422	1.8573e+006
14423	5.288e+005
14423	6.1592e+005
14424	2.4394e+006
14424	3.5463e+005
14425	2.2817e+006
14425	1.6341e+006
14426	2.3376e+006
14426	1.3583e+006
14427	1.8229e+006
14427	9.3192e+005
14428	1.1748e+006
14428	2.2616e+006
14429	1.8418e+006
14429	1.2766e+006
14430	1.3316e+006
14430	1.4131e+006
14431	1.822e+006
14431	1.9934e+006
14432	1.0372e+006
14432	6.3485e+005
14433	1.9497e+006
14433	2.0647e+006
14434	1.7014e+006
14434	2.2491e+006
14435	1.5511e+006
14435	1.3965e+006
14436	1.3322e+006
14436	1.8499e+006
14437	1.4821e+006
14437	1.7712e+006
14438	7.5015e+005
14438	1.6436e+006
14439	1.8593e+006
14439	1.202e+006
14440	1.5233e+006
14440	1.9138e+006
14441	4.9643e+006
14441	2.0166e+006
14442	1.9673e+006
14442	2.1268e+006
14443	1.3735e+006
14443	1.1724e+006
14444	1.3119e+006
14444	1.581e+006
14445	1.184e+006
14445	8.4751e+005
14446	1.1485e+006
14446	8.5722e+005
14447	2.1796e+006
14447	2.8035e+006
14448	2.5893e+006
14448	1.0281e+006
14449	2.5377e+006
14449	2.6395e+006
14450	2.0847e+006
14450	2.7032e+006
14451	2.2433e+006
14451	2.9023e+006
14452	1.9404e+006
14452	1.6773e+006
14453	2.02e+006
14453	2.3401e+006
14454	3.6579e+006
14454	3.2247e+006
14455	4.1956e+006
14455	3.565e+006
14456	1.9449e+006
14456	1.3968e+006
14457	2.7308e+006
14457	2.9201e+006
14458	3.5043e+006
14458	3.1235e+006
14459	3.3083e+006
14459	3.5772e+006
14460	3.4322e+006
14460	4.2839e+006
14461	1.0013e+006
14461	2.0785e+006
14462	3.6084e+006
14462	2.7475e+006
14463	1.7817e+006
14463	1.6696e+006
14464	1.4166e+006
14464	1.2677e+006
14465	3.5571e+006
14465	3.9592e+006
14466	2.79e+006
14466	4.7639e+006
14467	3.7532e+006
14467	3.6785e+006
14468	3.0222e+006
14468	3.7087e+006
14469	4.2701e+006
14469	3.489e+006
14470	3.35e+006
14470	3.1571e+006
14471	3.9327e+006
14471	3.5505e+006
14472	2.6888e+006
14472	2.4665e+006
14473	1.5895e+006
14473	2.5623e+006
14474	3.5648e+006
14474	3.0683e+006
14475	2.6106e+006
14475	2.1353e+006
14476	3.2247e+006
14476	3.3559e+006
14477	1.9064e+006
14477	2.2729e+006
14478	2.4993e+006
14478	1.4778e+006
14479	1.2479e+006
14479	1.4193e+006
14480	1.984e+006
14480	2.3215e+006
14481	2.7114e+006
14481	3.4547e+006
14482	1.6214e+006
14482	1.1943e+006
14483	2.5876e+006
14483	4.3932e+006
14484	1.5664e+006
14484	1.5865e+006
14485	2.9731e+006
14485	3.3766e+006
14486	3.3092e+006
14486	3.8612e+006
14487	4.9694e+006
14487	5.2613e+006
14488	2.4168e+006
14488	2.5325e+006
14489	4.8278e+006
14489	4.4309e+006
14490	1.0468e+006
14490	1.2639e+006
14491	2.9751e+006
14491	2.7263e+006
14492	1.5521e+006
14492	1.71e+006
14493	3.9563e+006
14493	4.1555e+006
14494	4.2542e+006
14494	4.0588e+006
14495	3.1142e+006
14495	2.3534e+006
14496	1.6481e+006
14496	1.7173e+006
14497	2.4951e+006
14497	2.9686e+006
14498	1.8121e+006
14498	2.7879e+006
14499	2.1674e+006
14499	1.1752e+006
14500	2.6963e+006
14500	2.1113e+006
14501	2.8208e+006
14501	1.4651e+006
14502	1.4014e+006
14502	1.942e+006
14503	2.5591e+006
14503	1.6578e+006
14504	8.8647e+005
14504	1.5196e+006
14505	1.404e+006
14505	1.0225e+006
14506	1.534e+006
14506	1.6687e+006
14507	2.612e+006
14507	2.0556e+006
14508	2.1846e+006
14508	6.9478e+005
14509	2.1441e+006
14509	1.8275e+006
14510	1.1587e+006
14510	8.451e+005
14511	2.5655e+006
14511	2.4844e+006
14512	3.1373e+006
14512	3.5259e+006
14513	1.8648e+006
14513	1.444e+006
14514	2.3533e+006
14514	3.1007e+006
14515	2.1993e+006
14515	2.8613e+006
14516	1.9711e+006
14516	1.7851e+006
14517	1.045e+006
14517	1.8402e+006
14518	1.7757e+006
14518	2.8171e+006
14519	2.6902e+006
14519	2.2924e+006
14520	2.1024e+006
14520	2.6251e+006
14521	2.7497e+006
14521	2.315e+006
14522	2.3395e+006
14522	1.5539e+006
14523	2.6682e+006
14523	1.6316e+006
14524	2.651e+006
14524	2.1736e+006
14525	2.8864e+006
14525	2.783e+006
14526	3.158e+006
14526	2.9444e+006
14527	3.6692e+006
14527	3.5427e+006
14528	3.7627e+006
14528	2.8295e+006
14529	1.9001e+006
14529	1.3593e+006
14530	2.9017e+006
14530	2.2559e+006
14531	2.3105e+006
14531	1.7715e+006
14532	2.8693e+006
14532	3.9242e+006
14533	1.5413e+006
14533	2.766e+006
14534	3.1322e+006
14534	2.9119e+006
14535	3.0526e+006
14535	5.0901e+006
14536	1.3249e+006
14536	2.0371e+006
14537	2.948e+006
14537	3.7643e+006
14538	2.4834e+006
14538	3.1467e+006
14539	2.465e+006
14539	2.4813e+006
14540	5.2277e+006
14540	5.6919e+006
14541	3.025e+006
14541	3.6907e+006
14542	2.7798e+006
14542	1.2952e+006
14543	2.8115e+006
14543	1.6501e+006
14544	3.7905e+006
14544	2.1404e+006
14545	1.4334e+006
14545	1.8734e+006
14546	1.868e+006
14546	1.7582e+006
14547	2.212e+006
14547	2.0574e+006
14548	3.6856e+006
14548	3.4059e+006
14549	2.405e+006
14549	1.24e+006
14550	1.747e+006
14550	1.5979e+006
14551	1.2449e+006
14551	1.1912e+006
14552	4.0824e+006
14552	4.3844e+006
14553	2.3598e+006
14553	3.0289e+006
14554	1.7867e+006
14554	2.1184e+006
14555	1.3514e+006
14555	2.0482e+006
14556	2.0477e+006
14556	2.6075e+006
14557	1.7344e+006
14557	1.8932e+006
14558	2.8759e+006
14558	2.6109e+006
14559	6.796e+005
14559	9.3805e+005
14560	9.6962e+005
14560	1.2914e+006
14561	2.0955e+006
14561	1.8307e+006
14562	5.0191e+005
14562	1.2259e+006
14563	1.1896e+006
14563	1.4544e+006
14564	2.4085e+006
14564	1.9687e+006
14565	2.1606e+006
14565	2.3242e+006
14566	2.8539e+006
14566	2.7034e+006
14567	1.7031e+006
14567	5.5449e+005
14568	1.5695e+006
14568	1.2308e+006
14569	4.9408e+005
14569	8.4378e+005
14570	2.2373e+006
14570	2.0418e+006
14571	2.2975e+006
14571	2.5123e+006
14572	2.3674e+006
14572	2.845e+006
14573	2.3847e+006
14573	3.2667e+006
14574	1.6009e+006
14574	1.4999e+006
14575	2.3062e+006
14575	2.9451e+006
14576	2.1735e+006
14576	3.0162e+006
14577	1.8864e+006
14577	2.1892e+006
14578	2.33e+006
14578	2.7462e+006
14579	2.4869e+006
14579	2.6413e+006
14580	1.7805e+006
14580	1.8574e+006
14581	3.7472e+006
14581	3.3876e+006
14582	2.4309e+006
14582	2.7312e+006
14583	2.5513e+006
14583	2.1342e+006
14584	1.2117e+006
14584	1.7732e+006
14585	1.5509e+006
14585	1.5513e+006
14586	1.9898e+006
14586	2.8263e+006
14587	9.7393e+005
14587	1.2512e+006
14588	2.047e+006
14588	2.6117e+006
14589	4.5027e+006
14589	4.5118e+006
14590	3.807e+006
14590	2.1802e+006
14591	1.1826e+006
14591	1.1977e+006
14592	2.9143e+006
14592	1.997e+006
14593	1.5303e+006
14593	1.9112e+006
14594	2.884e+006
14594	4.7409e+006
14595	1.7866e+006
14595	2.8158e+006
14596	4.1719e+006
14596	3.7494e+006
14597	2.4581e+006
14597	2.3989e+006
14598	3.9073e+006
14598	3.4653e+006
14599	2.3511e+006
14599	2.4662e+006
14600	3.1896e+006
14600	2.763e+006
14601	3.5477e+006
14601	3.453e+006
14602	2.1111e+006
14602	3.4838e+006
14603	1.2809e+006
14603	3.3449e+006
14604	2.3082e+006
14604	2.9744e+006
14605	2.2533e+006
14605	3.2593e+006
14606	2.2531e+006
14606	2.6427e+006
14607	2.0104e+006
14607	1.3138e+006
14608	2.1902e+006
14608	2.0367e+006
14609	4.4329e+006
14609	3.9189e+006
14610	2.1357e+006
14610	2.0778e+006
14611	1.2731e+006
14611	1.4375e+006
14612	3.1038e+006
14612	2.7711e+006
14613	2.5466e+006
14613	2.053e+006
14614	1.9057e+006
14614	3.0024e+006
14615	4.2027e+006
14615	1.7627e+006
14616	1.95e+006
14616	1.41e+006
14617	9.4372e+005
14617	9.7925e+005
14618	2.7116e+006
14618	2.7108e+006
14619	1.9236e+006
14619	1.471e+006
14620	2.6727e+006
14620	3.1128e+006
14621	3.7412e+006
14621	3.5214e+006
14622	4.1713e+006
14622	3.6133e+006
14623	2.7329e+006
14623	2.5737e+006
14624	2.76e+006
14624	3.2899e+006
14625	1.0668e+006
14625	8.1673e+005
14626	3.4346e+006
14626	4.0354e+006
14627	1.5094e+006
14627	1.1284e+006
14628	9.2575e+005
14628	1.3439e+006
14629	1.9128e+006
14629	2.2948e+006
14630	1.7385e+006
14630	2.1547e+006
14631	2.8568e+006
14631	3.4017e+006
14632	2.3184e+006
14632	2.8142e+006
14633	1.2761e+006
14633	2.1255e+006
14634	2.8403e+006
14634	2.1021e+006
14635	3.5185e+006
14635	2.3832e+006
14636	3.0513e+006
14636	2.804e+006
14637	1.867e+006
14637	1.8395e+006
14638	2.8533e+006
14638	2.7188e+006
14639	2.5589e+006
14639	2.3773e+006
14640	3.1537e+006
14640	2.3648e+006
14641	2.5239e+006
14641	1.8947e+006
14642	1.5965e+006
14642	1.1653e+006
14643	2.7898e+006
14643	2.0889e+006
14644	3.2351e+006
14644	2.7138e+006
14645	1.7169e+006
14645	2.4813e+006
14646	2.1834e+006
14646	3.3205e+006
14647	7.3392e+005
14647	1.1349e+006
14648	3.6703e+006
14648	2.7528e+006
14649	1.8137e+006
14649	1.9342e+006
14650	2.6072e+006
14650	1.921e+006
14651	1.5077e+006
14651	2.326e+006
14652	9.7444e+005
14652	7.843e+005
14653	3.0398e+006
14653	2.4959e+006
14654	2.4021e+006
14654	1.3826e+006
14655	1.8425e+006
14655	1.2745e+006
14656	3.0415e+006
14656	2.0292e+006
14657	2.758e+006
14657	2.4987e+006
14658	2.5659e+006
14658	2.3016e+006
14659	2.2716e+006
14659	2.7417e+006
14660	4.009e+006
14660	3.0473e+006
14661	2.1699e+006
14661	2.2021e+006
14662	1.6275e+006
14662	2.0154e+006
14663	2.6405e+006
14663	2.6089e+006
14664	3.7238e+006
14664	3.1928e+006
14665	2.977e+006
14665	3.2706e+006
14666	3.3297e+006
14666	3.9846e+006
14667	1.2586e+006
14667	3.0858e+006
14668	2.1877e+006
14668	3.2753e+006
14669	2.2444e+006
14669	2.1102e+006
14670	4.5993e+006
14670	2.0258e+006
14671	1.3976e+006
14671	2.0541e+006
14672	1.2408e+006
14672	1.066e+006
14673	1.3164e+006
14673	1.6872e+006
14674	5.1347e+005
14674	1.0192e+006
14675	4.5393e+006
14675	3.9413e+006
14676	3.8262e+006
14676	3.9643e+006
14677	1.863e+006
14677	2.6955e+006
14678	4.1088e+006
14678	2.9831e+006
14679	2.3728e+006
14679	2.8669e+006
14680	1.6484e+006
14680	2.0853e+006
14681	1.752e+006
14681	2.0745e+006
14682	8.9037e+005
14682	5.3794e+005
14683	2.5451e+006
14683	2.9856e+006
14684	2.3478e+006
14684	3.1744e+006
14685	1.4413e+006
14685	2.8213e+006
14686	2.9946e+006
14686	3.1084e+006
14687	1.4724e+006
14687	1.2307e+006
14688	9.7494e+005
14688	1.796e+006
14689	3.4592e+006
14689	1.1161e+006
14690	1.8744e+006
14690	1.2851e+006
14691	2.1781e+006
14691	2.2957e+006
14692	1.7304e+006
14692	2.6403e+006
14693	2.2653e+006
14693	1.4828e+006
14694	3.1666e+006
14694	3.0372e+006
14695	1.0368e+006
14695	1.5066e+006
14696	2.7572e+006
14696	4.1741e+006
14697	6.3329e+006
14697	5.2568e+006
14698	1.6921e+006
14698	4.0823e+005
14699	1.3653e+006
14699	3.0028e+006
14700	1.7988e+006
14700	2.461e+006
14701	3.5924e+006
14701	3.1427e+006
14702	2.0567e+006
14702	1.6319e+006
14703	4.4753e+006
14703	1.653e+006
14704	6.8826e+005
14704	1.9915e+006
14705	1.1907e+006
14705	1.4187e+006
14706	2.8462e+006
14706	2.677e+006
14707	2.2438e+006
14707	1.7221e+006
14708	2.8028e+006
14708	2.4621e+006
14709	4.2383e+006
14709	2.9406e+006
14710	3.1237e+006
14710	3.2054e+006
14711	2.7561e+006
14711	3.3694e+006
14712	4.1012e+006
14712	2.3433e+006
14713	2.0688e+006
14713	2.2154e+006
14714	2.8937e+006
14714	2.6644e+006
14715	3.3337e+006
14715	4.0799e+006
14716	2.3248e+006
14716	2.4283e+006
14717	3.0868e+006
14717	1.803e+006
14718	3.1327e+006
14718	4.1997e+006
14719	3.7214e+006
14719	5.0926e+006
14720	2.9633e+006
14720	1.5923e+006
14721	2.4724e+006
14721	3.2564e+006
14722	5.3808e+006
14722	5.1488e+006
14723	5.9084e+006
14723	5.1989e+006
14724	2.948e+006
14724	3.4881e+006
14725	4.0863e+006
14725	4.1291e+006
14726	1.0995e+006
14726	2.3255e+006
14727	3.4601e+006
14727	2.7815e+006
14728	7.2005e+005
14728	1.7165e+006
14729	4.1295e+006
14729	1.1213e+006
14730	1.1894e+006
14730	2.3233e+006
14731	1.981e+006
14731	8.3506e+005
14732	1.032e+006
14732	1.8945e+006
14733	2.9364e+006
14733	4.765e+006
14734	2.1077e+006
14734	1.4953e+006
14735	9.0224e+005
14735	1.3624e+006
14736	2.1372e+006
14736	2.1679e+006
14737	0.
14737	0.
14738	0.
14738	0.
14739	0.
14739	0.
14740	7.2451e+005
14740	99792
14741	84678
14741	88347
14742	0.
14742	0.
14743	0.
14743	0.
14744	1.4055e+005
14744	4.4936e+005
14745	3.7462e+005
14745	5.9946e+005
14746	7.5908e+005
14746	1.3119e+006
14747	0.
14747	0.
14748	0.
14748	0.
14749	0.
14749	0.
14750	0.
14750	0.
14751	0.
14751	0.
14752	0.
14752	0.
14753	0.
14753	0.
14754	0.
14754	0.
14755	0.
14755	0.
14756	0.
14756	0.
14757	0.
14757	0.
14758	0.
14758	0.
14759	0.
14759	0.
14760	0.
14760	0.
14761	0.
14761	0.
14762	0.
14762	0.
14763	0.
14763	0.
14764	0.
14764	0.
14765	0.
14765	0.
14766	0.
14766	0.
14767	0.
14767	0.
14768	0.
14768	0.
14769	0.
14769	0.
14770	0.
14770	0.
14771	0.
14771	0.
14772	0.
14772	0.
14773	0.
14773	0.
14774	0.
14774	0.
14775	0.
14775	0.
14776	0.
14776	0.
14777	0.
14777	0.
14778	0.
14778	0.
14779	0.
14779	0.
14780	0.
14780	0.
14781	0.
14781	0.
14782	0.
14782	0.
14783	0.
14783	0.
14784	0.
14784	0.
14785	0.
14785	0.
14786	0.
14786	0.
14787	0.
14787	0.
14788	0.
14788	0.
14789	0.
14789	0.
14790	0.
14790	0.
14791	0.
14791	0.
14792	0.
14792	0.
14793	0.
14793	0.
14794	0.
14794	0.
14795	0.
14795	0.
14796	0.
14796	0.
14797	0.
14797	0.
14798	0.
14798	0.
14799	0.
14799	0.
14800	0.
14800	0.
14801	0.
14801	0.
14802	0.
14802	0.
14803	0.
14803	0.
14804	0.
14804	0.
14805	0.
14805	0.
14806	0.
14806	0.
14807	0.
14807	0.
14808	0.
14808	0.
14809	0.
14809	0.
14810	0.
14810	0.
14811	0.
14811	0.
14812	0.
14812	0.
14813	0.
14813	0.
14814	0.
14814	0.
14815	0.
14815	0.
14816	0.
14816	0.
14817	0.
14817	0.
14818	1.8131e+006
14818	1.3317e+006
14819	1.1074e+006
14819	1.7015e+006
14820	1.7294e+006
14820	1.3878e+006
14821	1.3429e+006
14821	1.9402e+006
14822	4.2252e+005
14822	1.5766e+006
14823	1.9359e+006
14823	1.8702e+006
14824	2.152e+006
14824	4.3703e+005
14825	1.754e+006
14825	8.9032e+005
14826	1.0877e+006
14826	4.8917e+005
14827	1.7131e+006
14827	1.0526e+006
14828	2.5936e+006
14828	1.954e+006
14829	1.4522e+006
14829	3.8703e+005
14830	2.3087e+006
14830	7.9817e+005
14831	1.7509e+006
14831	1.0923e+005
14832	1.2502e+006
14832	5.8366e+005
14833	1.7261e+006
14833	5.2335e+005
14834	1.4989e+006
14834	2.9282e+005
14835	6.524e+005
14835	7.2274e+005
14836	9.6548e+005
14836	5.5861e+005
14837	4.9696e+005
14837	6.9221e+005
14838	1.3447e+006
14838	1.5969e+006
14839	9.6805e+005
14839	9.6766e+005
14840	2.1054e+006
14840	1.082e+006
14841	7.2653e+005
14841	1.2641e+006
14842	1.3851e+006
14842	4.2525e+005
14843	8.9675e+005
14843	1.3172e+006
14844	1.1703e+006
14844	9.1479e+005
14845	1.1843e+006
14845	1.3596e+006
14846	1.1691e+006
14846	1.7212e+006
14847	7.2676e+005
14847	1.4036e+006
14848	2.1277e+006
14848	1.8582e+006
14849	6.7679e+005
14849	6.0923e+005
14850	7.9977e+005
14850	1.4706e+006
14851	2.0393e+006
14851	2.4353e+006
14852	1.4888e+006
14852	1.8256e+006
14853	1.7716e+006
14853	2.008e+006
14854	1.2955e+006
14854	1.6146e+006
14855	1.8904e+006
14855	1.4802e+006
14856	1.2581e+006
14856	5.6275e+005
14857	1.5583e+006
14857	1.0915e+006
14858	3.2411e+006
14858	3.5723e+006
14859	3.9529e+006
14859	3.6398e+006
14860	1.8945e+006
14860	3.3767e+006
14861	3.1082e+006
14861	3.2394e+006
14862	2.1998e+006
14862	1.1237e+006
14863	2.6554e+006
14863	3.1988e+006
14864	2.3769e+006
14864	2.7116e+006
14865	1.8139e+006
14865	2.0923e+006
14866	2.2359e+006
14866	1.5381e+006
14867	3.2523e+006
14867	3.6399e+006
14868	3.9963e+006
14868	3.7378e+006
14869	3.2775e+006
14869	3.0391e+006
14870	2.3195e+006
14870	2.4865e+006
14871	1.876e+006
14871	3.1452e+006
14872	1.1858e+006
14872	2.3064e+006
14873	1.9437e+006
14873	1.4798e+006
14874	2.1288e+006
14874	2.4983e+006
14875	4.1248e+006
14875	4.2923e+006
14876	6.1926e+006
14876	5.4403e+006
14877	3.5266e+006
14877	3.1089e+006
14878	3.989e+006
14878	3.8983e+006
14879	3.0388e+006
14879	3.239e+006
14880	3.6056e+006
14880	3.8282e+006
14881	2.9426e+006
14881	2.8119e+006
14882	2.6855e+006
14882	3.272e+006
14883	2.1032e+006
14883	1.3258e+006
14884	1.3656e+006
14884	3.542e+006
14885	4.0501e+006
14885	3.475e+006
14886	3.6521e+006
14886	3.0882e+006
14887	1.9916e+006
14887	1.6637e+006
14888	1.5567e+006
14888	1.1277e+006
14889	2.7501e+006
14889	1.7277e+006
14890	1.5997e+006
14890	1.2665e+006
14891	1.6846e+006
14891	2.5281e+006
14892	8.2064e+005
14892	1.0314e+006
14893	1.6314e+006
14893	2.0972e+006
14894	9.0741e+005
14894	9.9637e+005
14895	1.9282e+006
14895	1.5956e+006
14896	5.5297e+006
14896	5.064e+006
14897	1.3092e+006
14897	1.8637e+006
14898	8.8333e+005
14898	1.7456e+006
14899	2.2025e+006
14899	2.6794e+006
14900	1.1455e+006
14900	1.2234e+006
14901	1.9213e+006
14901	2.1398e+006
14902	3.4093e+006
14902	6.962e+006
14903	4.0246e+006
14903	4.5848e+006
14904	4.6112e+006
14904	5.4932e+006
14905	5.9475e+006
14905	5.615e+006
14906	5.5306e+006
14906	5.2336e+006
14907	4.9008e+006
14907	5.2885e+006
14908	5.064e+006
14908	4.5992e+006
14909	3.4105e+006
14909	2.4823e+006
14910	2.1205e+006
14910	3.6193e+006
14911	3.444e+006
14911	3.9507e+006
14912	2.2259e+006
14912	3.8206e+006
14913	4.4683e+006
14913	4.057e+006
14914	3.6673e+006
14914	3.9009e+006
14915	2.2023e+006
14915	1.822e+006
14916	3.7143e+006
14916	4.3092e+006
14917	4.3282e+006
14917	3.702e+006
14918	5.4407e+006
14918	5.7901e+006
14919	4.9418e+006
14919	4.5439e+006
14920	2.9307e+006
14920	2.6389e+006
14921	4.8207e+006
14921	3.8973e+006
14922	5.1533e+006
14922	5.586e+006
14923	1.8893e+006
14923	1.4145e+006
14924	2.7752e+006
14924	3.1431e+006
14925	2.3189e+006
14925	2.0552e+006
14926	1.9433e+006
14926	3.1137e+006
14927	2.2285e+006
14927	1.5417e+006
14928	4.3955e+006
14928	4.8608e+006
14929	4.5026e+006
14929	6.5834e+006
14930	1.3068e+006
14930	1.8542e+006
14931	1.9265e+006
14931	2.6755e+006
14932	1.1737e+006
14932	1.1894e+006
14933	1.6779e+006
14933	1.6701e+006
14934	1.0825e+006
14934	8.7254e+005
14935	1.8567e+006
14935	1.9533e+006
14936	1.9241e+006
14936	1.8377e+006
14937	2.1575e+006
14937	1.862e+006
14938	1.4383e+006
14938	1.4839e+006
14939	1.2946e+006
14939	2.01e+006
14940	9.3027e+005
14940	1.5515e+006
14941	7.9584e+005
14941	9.1079e+005
14942	4.2942e+006
14942	3.9063e+006
14943	2.3502e+006
14943	3.5016e+006
14944	2.7969e+006
14944	1.7615e+006
14945	3.1778e+006
14945	3.84e+006
14946	4.0948e+006
14946	1.5615e+006
14947	6.9562e+006
14947	3.7749e+006
14948	4.689e+006
14948	2.3059e+006
14949	4.904e+006
14949	4.4068e+006
14950	3.5664e+006
14950	3.2019e+006
14951	5.425e+006
14951	4.776e+006
14952	4.5765e+006
14952	3.313e+006
14953	2.6576e+006
14953	6.6681e+005
14954	3.1728e+006
14954	2.643e+006
14955	4.2258e+006
14955	4.7703e+006
14956	2.1612e+006
14956	2.9274e+006
14957	1.9088e+006
14957	2.579e+006
14958	2.1519e+006
14958	2.482e+006
14959	4.6803e+006
14959	4.2077e+006
14960	3.7467e+006
14960	4.0372e+006
14961	2.3786e+006
14961	2.7262e+006
14962	3.4994e+006
14962	3.1208e+006
14963	4.941e+006
14963	4.2186e+006
14964	4.5996e+006
14964	5.1131e+006
14965	3.5398e+006
14965	3.1709e+006
14966	3.6786e+006
14966	4.5293e+006
14967	2.5794e+006
14967	2.7352e+006
14968	2.4816e+006
14968	2.3466e+006
14969	1.7835e+006
14969	2.6595e+006
14970	4.5247e+006
14970	4.5498e+006
14971	6.6657e+006
14971	5.7668e+006
14972	4.7195e+006
14972	4.4854e+006
14973	5.6865e+006
14973	5.92e+006
14974	3.3415e+006
14974	3.5611e+006
14975	2.4528e+006
14975	3.1866e+006
14976	2.0766e+006
14976	2.1068e+006
14977	2.5446e+006
14977	2.4127e+006
14978	1.7515e+006
14978	1.7545e+006
14979	3.9919e+006
14979	3.5843e+006
14980	3.5754e+006
14980	4.132e+006
14981	1.8263e+006
14981	4.0419e+006
14982	1.1889e+006
14982	1.5416e+006
14983	1.5514e+006
14983	8.258e+005
14984	1.1146e+006
14984	1.3679e+006
14985	1.4134e+006
14985	1.0734e+006
14986	1.1315e+006
14986	7.9614e+005
14987	1.0399e+006
14987	1.1768e+006
14988	1.3981e+006
14988	1.3814e+006
14989	1.4632e+006
14989	1.578e+006
14990	7.723e+005
14990	7.7083e+005
14991	1.3692e+006
14991	1.1973e+006
14992	1.0226e+006
14992	1.3615e+006
14993	3.288e+006
14993	2.103e+006
14994	3.2194e+006
14994	2.2583e+006
14995	4.061e+006
14995	3.6045e+006
14996	3.2133e+006
14996	2.0816e+006
14997	2.1017e+006
14997	1.0365e+006
14998	1.0934e+006
14998	1.7748e+006
14999	1.1537e+006
14999	5.6158e+006
15000	3.2534e+006
15000	6.1175e+006
15001	2.688e+006
15001	5.1291e+006
15002	6.3337e+006
15002	6.0226e+006
15003	3.3677e+006
15003	2.8439e+006
15004	5.0506e+006
15004	5.724e+006
15005	4.1889e+006
15005	4.5913e+006
15006	3.7553e+006
15006	4.4861e+006
15007	4.2419e+006
15007	3.2288e+006
15008	2.9963e+006
15008	1.9248e+006
15009	5.0314e+006
15009	5.0915e+006
15010	4.8905e+006
15010	4.1837e+006
15011	4.7339e+006
15011	5.2499e+006
15012	3.3739e+006
15012	2.5815e+006
15013	6.5159e+006
15013	5.7237e+006
15014	1.8743e+006
15014	1.7546e+006
15015	3.1426e+006
15015	2.4385e+006
15016	3.1357e+006
15016	2.1122e+006
15017	4.186e+006
15017	4.0328e+006
15018	2.3074e+006
15018	2.6699e+006
15019	3.9416e+006
15019	4.1489e+006
15020	3.3241e+006
15020	4.1986e+006
15021	2.2163e+006
15021	3.5444e+006
15022	2.4457e+006
15022	5.0647e+005
15023	4.4903e+006
15023	2.5077e+006
15024	3.5182e+006
15024	1.5537e+006
15025	7.751e+005
15025	1.6903e+006
15026	2.3465e+006
15026	2.9693e+006
15027	2.728e+006
15027	2.4874e+006
15028	2.8799e+006
15028	2.7723e+006
15029	4.8419e+006
15029	4.979e+006
15030	2.7268e+006
15030	1.4637e+006
15031	1.0644e+006
15031	9.6799e+005
15032	8.3078e+005
15032	8.3121e+005
15033	8.6044e+005
15033	1.0016e+006
15034	1.3247e+006
15034	1.6298e+006
15035	9.5773e+005
15035	9.6169e+005
15036	1.1874e+006
15036	1.2367e+006
15037	9.2514e+005
15037	1.1363e+006
15038	1.4514e+006
15038	1.0186e+006
15039	1.5883e+006
15039	2.012e+006
15040	2.2344e+006
15040	2.9172e+006
15041	1.6539e+006
15041	1.9817e+006
15042	1.0591e+006
15042	9.2001e+005
15043	6.581e+006
15043	1.4489e+006
15044	9.677e+006
15044	3.9466e+006
15045	3.0061e+006
15045	1.1982e+006
15046	4.8466e+006
15046	4.2056e+006
15047	2.6926e+006
15047	1.5654e+006
15048	1.5659e+006
15048	2.5486e+006
15049	4.5658e+006
15049	5.2912e+006
15050	3.1646e+006
15050	3.6521e+006
15051	4.7273e+006
15051	6.2197e+006
15052	3.9865e+006
15052	4.8874e+006
15053	4.3695e+006
15053	3.6153e+006
15054	4.4861e+006
15054	4.7896e+006
15055	5.4087e+006
15055	3.7001e+006
15056	1.2765e+006
15056	4.4468e+006
15057	3.1551e+006
15057	6.7722e+006
15058	3.1086e+006
15058	5.8687e+006
15059	2.0691e+006
15059	1.4628e+006
15060	6.7827e+005
15060	4.8241e+005
15061	2.4907e+006
15061	3.0449e+006
15062	1.5394e+006
15062	1.3462e+006
15063	9.1668e+005
15063	9.5046e+005
15064	1.6655e+006
15064	1.5321e+006
15065	8.0314e+005
15065	9.9233e+005
15066	4.4542e+006
15066	4.257e+006
15067	2.1948e+006
15067	2.5203e+006
15068	9.498e+005
15068	1.5374e+006
15069	1.292e+006
15069	1.121e+006
15070	1.4001e+006
15070	8.8335e+005
15071	1.5819e+006
15071	1.3272e+006
15072	2.1605e+006
15072	3.0983e+006
15073	1.1542e+006
15073	1.1823e+006
15074	1.5863e+006
15074	9.9574e+005
15075	2.284e+006
15075	1.9153e+006
15076	1.1915e+006
15076	1.9151e+006
15077	8.962e+005
15077	1.7458e+006
15078	3.0799e+005
15078	1.1075e+006
15079	1.77e+005
15079	7.7934e+005
15080	1.6818e+006
15080	2.1909e+006
15081	1.2385e+006
15081	1.9502e+006
15082	87557
15082	5.7366e+005
15083	3.8685e+005
15083	4.4153e+005
15084	1.2179e+006
15084	7.8681e+005
15085	9.9093e+005
15085	9.9213e+005
15086	7.732e+005
15086	1.5817e+005
15087	2.5264e+006
15087	1.9314e+005
15088	1.6301e+006
15088	2.0738e+006
15089	0.
15089	0.
15090	1.0978e+006
15090	8.2438e+005
15091	0.
15091	0.
15092	0.
15092	0.
15093	0.
15093	0.
15094	0.
15094	0.
15095	29131
15095	75177
15096	0.
15096	0.
15097	0.
15097	0.
15098	0.
15098	0.
15099	0.
15099	0.
15100	0.
15100	0.
15101	0.
15101	0.
15102	0.
15102	0.
15103	0.
15103	0.
15104	0.
15104	0.
15105	0.
15105	0.
15106	0.
15106	0.
15107	0.
15107	0.
15108	0.
15108	0.
15109	0.
15109	0.
15110	0.
15110	0.
15111	0.
15111	0.
15112	0.
15112	0.
15113	0.
15113	0.
15114	0.
15114	0.
15115	0.
15115	0.
15116	0.
15116	0.
15117	0.
15117	0.
15118	0.
15118	0.
15119	0.
15119	0.
15120	0.
15120	0.
15121	0.
15121	0.
15122	0.
15122	0.
15123	0.
15123	0.
15124	0.
15124	0.
15125	0.
15125	0.
15126	0.
15126	0.
15127	0.
15127	0.
15128	0.
15128	0.
15129	0.
15129	0.
15130	0.
15130	0.
15131	0.
15131	0.
15132	0.
15132	0.
15133	0.
15133	0.
15134	0.
15134	0.
15135	0.
15135	0.
15136	0.
15136	0.
15137	0.
15137	0.
15138	0.
15138	0.
15139	0.
15139	0.
15140	0.
15140	0.
15141	0.
15141	0.
15142	0.
15142	0.
15143	0.
15143	0.
15144	0.
15144	0.
15145	0.
15145	0.
15146	0.
15146	0.
15147	0.
15147	0.
15148	1.3254e+005
15148	4.1487e+005
15149	1.6802e+005
15149	5.9496e+005
15150	86367
15150	4.5708e+005
15151	3.0602e+005
15151	5.8408e+005
15152	1.3841e+006
15152	1.0356e+006
15153	1.7121e+006
15153	1.1434e+006
15154	1.6075e+006
15154	2.3286e+006
15155	1.6873e+006
15155	3.2835e+006
15156	1.6109e+006
15156	1.6608e+006
15157	1.3781e+006
15157	1.1989e+006
15158	2.6618e+006
15158	1.7649e+006
15159	1.644e+006
15159	1.7167e+006
15160	1.3876e+006
15160	1.8082e+006
15161	1.3041e+006
15161	1.6748e+006
15162	1.2276e+006
15162	1.1386e+006
15163	1.3514e+006
15163	1.1453e+006
15164	4.3597e+005
15164	9.7768e+005
15165	8.2081e+005
15165	5.8989e+005
15166	6.7977e+005
15166	6.3524e+005
15167	7.3618e+005
15167	4.8184e+005
15168	6.3794e+005
15168	4.8302e+005
15169	1.415e+006
15169	1.4884e+006
15170	5.9399e+005
15170	5.3716e+005
15171	8.0439e+005
15171	5.1043e+005
15172	1.2323e+006
15172	4.4516e+005
15173	1.2176e+006
15173	9.9353e+005
15174	3.941e+005
15174	1.1799e+006
15175	2.6435e+006
15175	1.6642e+006
15176	1.5824e+006
15176	3.0962e+006
15177	1.8201e+006
15177	1.9643e+006
15178	1.6821e+006
15178	1.7053e+006
15179	1.7711e+006
15179	2.7101e+006
15180	1.4956e+006
15180	1.7811e+006
15181	1.3529e+006
15181	8.1561e+005
15182	8.2297e+005
15182	7.278e+005
15183	1.7379e+006
15183	8.203e+005
15184	2.7201e+006
15184	1.4897e+006
15185	2.2498e+006
15185	1.2656e+006
15186	1.9894e+006
15186	1.9335e+006
15187	2.5436e+006
15187	2.0689e+006
15188	1.6133e+006
15188	1.5354e+006
15189	1.6698e+006
15189	1.523e+006
15190	1.6052e+006
15190	1.8591e+006
15191	6.9221e+005
15191	2.0727e+006
15192	9.1994e+005
15192	1.2936e+006
15193	1.0441e+006
15193	1.2752e+006
15194	2.3841e+006
15194	2.0081e+006
15195	1.7671e+006
15195	1.5175e+006
15196	5.5703e+005
15196	8.5018e+005
15197	1.4188e+006
15197	1.1367e+006
15198	4.4355e+005
15198	7.8687e+005
15199	1.2299e+006
15199	1.7067e+006
15200	5.4491e+005
15200	5.6687e+005
15201	2.4719e+005
15201	9.5877e+005
15202	8.9531e+005
15202	1.2909e+006
15203	9.1538e+005
15203	1.2741e+006
15204	8.8249e+005
15204	1.4889e+006
15205	1.9017e+006
15205	2.2946e+006
15206	2.2896e+006
15206	2.7068e+006
15207	2.6726e+006
15207	1.9013e+006
15208	1.8105e+006
15208	1.2627e+006
15209	2.4342e+006
15209	2.8275e+006
15210	2.485e+006
15210	2.3331e+006
15211	2.2562e+006
15211	2.394e+006
15212	2.3342e+006
15212	2.5374e+006
15213	2.3055e+006
15213	2.5258e+006
15214	2.1308e+006
15214	1.7664e+006
15215	3.5737e+006
15215	3.871e+006
15216	1.4861e+006
15216	2.0282e+006
15217	3.0468e+006
15217	3.2503e+006
15218	5.3301e+006
15218	4.5721e+006
15219	4.7205e+006
15219	5.1859e+006
15220	4.1446e+006
15220	4.1966e+006
15221	4.6804e+006
15221	4.2613e+006
15222	7.5081e+006
15222	7.0747e+006
15223	5.834e+006
15223	5.032e+006
15224	3.7856e+006
15224	2.1099e+006
15225	4.144e+006
15225	3.9781e+006
15226	4.2181e+006
15226	3.3666e+006
15227	6.7279e+006
15227	5.301e+006
15228	5.8185e+006
15228	1.1851e+007
15229	4.1173e+006
15229	4.0063e+006
15230	2.5136e+006
15230	2.9327e+006
15231	5.4706e+006
15231	5.6934e+006
15232	5.2384e+006
15232	4.9858e+006
15233	2.3062e+006
15233	1.7005e+006
15234	2.6349e+006
15234	2.8921e+006
15235	3.0426e+006
15235	3.8397e+006
15236	3.6441e+006
15236	4.744e+006
15237	1.0347e+006
15237	9.0443e+005
15238	4.4084e+006
15238	4.8179e+006
15239	4.8298e+006
15239	4.883e+006
15240	6.9682e+006
15240	5.565e+006
15241	4.8141e+006
15241	4.5486e+006
15242	5.5561e+006
15242	5.4476e+006
15243	5.113e+006
15243	4.4442e+006
15244	6.0284e+006
15244	6.466e+006
15245	3.6566e+006
15245	3.1906e+006
15246	2.3115e+006
15246	2.1519e+006
15247	1.8981e+006
15247	3.4957e+006
15248	4.4588e+006
15248	2.8196e+006
15249	4.0836e+006
15249	3.9669e+006
15250	8.9704e+006
15250	7.5263e+006
15251	1.6568e+006
15251	1.2807e+006
15252	1.9594e+006
15252	1.4931e+006
15253	2.0841e+006
15253	1.8052e+006
15254	1.2848e+006
15254	8.8505e+005
15255	1.3057e+006
15255	1.9779e+006
15256	3.4908e+006
15256	3.1058e+006
15257	4.524e+006
15257	5.063e+006
15258	2.7241e+006
15258	3.6154e+006
15259	3.7645e+006
15259	3.0105e+006
15260	4.9619e+006
15260	4.4182e+006
15261	3.5733e+006
15261	3.4334e+006
15262	3.8683e+006
15262	4.3232e+006
15263	6.2563e+006
15263	5.0884e+006
15264	2.5451e+006
15264	2.2658e+006
15265	1.652e+006
15265	1.7987e+006
15266	3.6172e+006
15266	3.7563e+006
15267	4.0143e+006
15267	3.8272e+006
15268	4.8707e+006
15268	6.0349e+006
15269	4.9153e+006
15269	4.3525e+006
15270	3.302e+006
15270	2.8947e+006
15271	2.5807e+006
15271	2.308e+006
15272	4.3863e+006
15272	2.7146e+006
15273	6.7251e+006
15273	2.9678e+006
15274	5.3145e+006
15274	5.4982e+006
15275	6.473e+006
15275	6.5044e+006
15276	5.0341e+006
15276	6.406e+006
15277	5.2004e+006
15277	6.7213e+006
15278	5.7038e+006
15278	4.381e+006
15279	9.3398e+005
15279	2.5805e+006
15280	2.8672e+006
15280	2.3842e+006
15281	3.114e+006
15281	4.7633e+006
15282	3.4666e+006
15282	3.2393e+006
15283	5.6653e+006
15283	3.8329e+006
15284	4.6203e+006
15284	4.4168e+006
15285	6.5147e+006
15285	5.5722e+006
15286	2.654e+006
15286	2.0802e+006
15287	3.7598e+006
15287	2.7705e+006
15288	3.6753e+006
15288	4.1733e+006
15289	3.264e+006
15289	3.514e+006
15290	1.309e+006
15290	1.7786e+006
15291	4.328e+006
15291	4.499e+006
15292	3.3425e+006
15292	2.4493e+006
15293	2.0011e+006
15293	8.7948e+005
15294	3.083e+006
15294	3.4136e+006
15295	4.2238e+006
15295	5.4755e+006
15296	4.3137e+006
15296	7.1849e+006
15297	5.2473e+006
15297	8.4557e+006
15298	2.3474e+006
15298	3.4619e+006
15299	2.7642e+006
15299	1.9933e+006
15300	2.5792e+006
15300	4.6044e+006
15301	5.7027e+006
15301	6.4492e+006
15302	5.836e+006
15302	6.1931e+006
15303	8.4644e+006
15303	7.7279e+006
15304	6.3273e+006
15304	6.7857e+006
15305	3.1132e+006
15305	1.8731e+006
15306	5.137e+006
15306	5.0583e+006
15307	5.8599e+006
15307	5.5135e+006
15308	6.5331e+006
15308	7.4742e+006
15309	2.57e+006
15309	2.2677e+006
15310	2.7081e+006
15310	2.4254e+006
15311	5.9401e+006
15311	6.0764e+006
15312	3.092e+006
15312	3.6177e+006
15313	3.4024e+006
15313	4.5675e+006
15314	1.7423e+006
15314	2.2153e+006
15315	1.6e+006
15315	2.0334e+006
15316	2.4502e+006
15316	3.0069e+006
15317	4.378e+006
15317	4.8665e+006
15318	4.3071e+006
15318	4.2755e+006
15319	5.8041e+006
15319	6.8937e+006
15320	2.7097e+006
15320	3.4244e+006
15321	1.4615e+006
15321	1.2833e+006
15322	3.6024e+006
15322	5.8962e+006
15323	2.2388e+006
15323	1.5144e+006
15324	2.4833e+006
15324	2.5293e+006
15325	2.5658e+006
15325	2.7749e+006
15326	1.7391e+006
15326	1.9643e+006
15327	1.7898e+006
15327	1.6349e+006
15328	1.3987e+006
15328	1.1649e+006
15329	1.5017e+006
15329	1.9386e+006
15330	1.8561e+006
15330	1.7416e+006
15331	1.6352e+006
15331	3.3068e+006
15332	2.5609e+006
15332	1.6848e+006
15333	1.8806e+006
15333	2.1227e+006
15334	1.6075e+006
15334	2.2619e+006
15335	1.8912e+006
15335	5.646e+005
15336	4.3186e+006
15336	2.3075e+006
15337	3.9464e+006
15337	4.5962e+006
15338	2.1958e+006
15338	2.9302e+006
15339	3.0988e+006
15339	3.7893e+006
15340	1.9959e+006
15340	2.079e+006
15341	1.8043e+006
15341	2.2249e+006
15342	2.5403e+006
15342	7.5946e+005
15343	3.1387e+006
15343	2.8877e+006
15344	3.1269e+006
15344	2.3953e+006
15345	2.0389e+006
15345	2.84e+006
15346	1.7399e+006
15346	1.2346e+006
15347	1.2234e+006
15347	1.5857e+006
15348	1.0411e+006
15348	4.6043e+005
15349	2.5037e+006
15349	9.1975e+005
15350	2.4055e+006
15350	2.109e+006
15351	2.248e+006
15351	2.9705e+006
15352	2.9049e+006
15352	3.5041e+006
15353	4.1095e+006
15353	4.3575e+006
15354	9.4334e+005
15354	1.4065e+006
15355	3.286e+006
15355	4.1149e+006
15356	4.9098e+005
15356	9.9849e+005
15357	2.6667e+006
15357	2.3581e+006
15358	4.1543e+006
15358	2.5894e+006
15359	4.5333e+006
15359	5.4488e+006
15360	5.4354e+006
15360	5.8357e+006
15361	6.4157e+006
15361	7.7529e+006
15362	3.6316e+006
15362	3.2587e+006
15363	4.7653e+006
15363	4.3339e+006
15364	7.148e+006
15364	6.409e+006
15365	5.4285e+006
15365	5.89e+006
15366	1.4263e+006
15366	2.599e+006
15367	2.8731e+006
15367	2.3403e+006
15368	5.1511e+006
15368	4.3912e+006
15369	2.5106e+006
15369	3.3254e+006
15370	3.8183e+006
15370	3.7357e+006
15371	3.3895e+006
15371	3.824e+006
15372	5.1217e+006
15372	4.6596e+006
15373	4.5751e+006
15373	4.2963e+006
15374	4.5008e+006
15374	4.392e+006
15375	6.1768e+006
15375	5.5467e+006
15376	5.4889e+006
15376	6.7322e+006
15377	4.9976e+006
15377	4.2392e+006
15378	7.0524e+006
15378	6.5797e+006
15379	5.1616e+006
15379	4.4702e+006
15380	3.0697e+006
15380	2.3929e+006
15381	4.5746e+006
15381	3.2155e+006
15382	2.3706e+006
15382	2.4683e+006
15383	2.7121e+006
15383	3.1667e+006
15384	3.5162e+006
15384	3.6642e+006
15385	4.3755e+006
15385	4.2462e+006
15386	5.2334e+006
15386	5.376e+006
15387	2.7007e+006
15387	2.7508e+006
15388	3.2609e+006
15388	3.2287e+006
15389	4.0547e+006
15389	3.6717e+006
15390	4.9382e+006
15390	2.9525e+006
15391	2.6132e+006
15391	2.0782e+006
15392	2.8703e+006
15392	1.9516e+006
15393	4.2436e+006
15393	3.4241e+006
15394	3.5063e+006
15394	2.269e+006
15395	1.792e+006
15395	1.2658e+006
15396	1.0633e+006
15396	1.6976e+006
15397	1.848e+006
15397	1.6272e+006
15398	2.9541e+006
15398	2.8892e+006
15399	6.0687e+006
15399	5.8899e+006
15400	7.0879e+005
15400	1.5912e+006
15401	7.6185e+005
15401	1.4606e+006
15402	1.4186e+006
15402	2.2623e+006
15403	1.2943e+006
15403	1.7751e+006
15404	1.3097e+006
15404	1.6645e+006
15405	3.3526e+006
15405	3.9474e+006
15406	4.4945e+006
15406	5.2575e+006
15407	2.5148e+006
15407	2.2149e+006
15408	2.3965e+006
15408	2.4921e+006
15409	1.3565e+006
15409	1.0398e+006
15410	1.8126e+006
15410	2.1173e+006
15411	2.7051e+006
15411	1.7179e+006
15412	1.1991e+006
15412	2.9089e+006
15413	2.1132e+006
15413	2.0204e+006
15414	4.5512e+006
15414	4.8403e+006
15415	1.7724e+006
15415	3.2732e+006
15416	1.5744e+006
15416	1.595e+006
15417	1.3016e+006
15417	1.5685e+006
15418	1.2822e+006
15418	1.1936e+006
15419	2.0498e+006
15419	1.7386e+006
15420	1.8792e+006
15420	2.8091e+006
15421	4.4218e+006
15421	4.2261e+006
15422	4.1041e+006
15422	4.2572e+006
15423	9.46e+005
15423	9.4806e+005
15424	8.3653e+005
15424	7.1893e+005
15425	1.9837e+006
15425	1.7088e+006
15426	1.752e+006
15426	3.4941e+006
15427	2.4414e+006
15427	5.3441e+006
15428	1.9535e+006
15428	2.5194e+006
15429	2.0616e+006
15429	2.4959e+006
15430	3.2156e+006
15430	4.4565e+006
15431	2.5023e+006
15431	2.3756e+006
15432	4.2385e+006
15432	3.5128e+006
15433	4.5397e+006
15433	4.867e+006
15434	6.3209e+006
15434	5.9508e+006
15435	2.2782e+006
15435	3.159e+006
15436	2.6793e+006
15436	2.6115e+006
15437	2.9873e+006
15437	2.762e+006
15438	2.9938e+006
15438	2.5766e+006
15439	4.2775e+006
15439	4.1095e+006
15440	5.2094e+006
15440	4.2841e+006
15441	3.5724e+006
15441	4.0636e+006
15442	9.0581e+006
15442	7.226e+006
15443	5.0284e+006
15443	4.513e+006
15444	4.9263e+006
15444	3.8197e+006
15445	4.1514e+006
15445	5.0525e+006
15446	4.2209e+006
15446	3.8519e+006
15447	5.1731e+006
15447	5.1102e+006
15448	3.8576e+006
15448	3.1387e+006
15449	4.2342e+006
15449	2.7377e+006
15450	2.4297e+006
15450	4.63e+006
15451	4.0747e+006
15451	3.8627e+006
15452	5.3604e+006
15452	5.7513e+006
15453	6.5555e+006
15453	8.0704e+006
15454	3.1038e+006
15454	2.2822e+006
15455	4.3846e+006
15455	4.0868e+006
15456	2.5129e+006
15456	3.9292e+006
15457	4.0071e+006
15457	4.1501e+006
15458	6.2062e+006
15458	6.2234e+006
15459	2.9765e+006
15459	2.7938e+006
15460	4.8716e+006
15460	3.8611e+006
15461	3.3786e+006
15461	2.4472e+006
15462	3.7737e+006
15462	4.3536e+006
15463	5.5566e+006
15463	5.2237e+006
15464	5.9429e+006
15464	8.4446e+006
15465	4.2835e+006
15465	5.7017e+006
15466	5.2193e+006
15466	6.7108e+006
15467	6.2296e+006
15467	6.9824e+006
15468	3.3138e+006
15468	3.6582e+006
15469	2.4672e+006
15469	3.2027e+006
15470	3.2946e+006
15470	3.7732e+006
15471	1.5039e+006
15471	1.0266e+006
15472	2.3663e+006
15472	3.1284e+006
15473	4.6279e+006
15473	5.5388e+006
15474	4.2641e+006
15474	4.317e+006
15475	2.6618e+006
15475	2.3629e+006
15476	5.4718e+006
15476	3.1208e+006
15477	1.7665e+006
15477	3.7148e+006
15478	9.7304e+005
15478	1.021e+006
15479	1.9272e+006
15479	1.5081e+006
15480	1.3183e+006
15480	2.1495e+006
15481	4.2837e+006
15481	3.8028e+006
15482	4.2033e+006
15482	2.826e+006
15483	6.7474e+006
15483	6.1516e+006
15484	3.4058e+006
15484	3.6496e+006
15485	1.943e+006
15485	1.5784e+006
15486	9.9441e+005
15486	1.329e+006
15487	1.9936e+006
15487	1.8477e+006
15488	2.3014e+006
15488	2.7592e+006
15489	3.116e+006
15489	3.382e+006
15490	2.7337e+006
15490	4.1353e+006
15491	1.5601e+006
15491	2.7595e+006
15492	1.1045e+006
15492	1.664e+006
15493	2.3963e+006
15493	2.432e+006
15494	1.7429e+006
15494	2.4332e+006
15495	3.3989e+006
15495	2.9511e+006
15496	2.5223e+006
15496	3.5191e+006
15497	3.5451e+006
15497	3.6834e+006
15498	2.2952e+006
15498	1.0828e+006
15499	4.2349e+006
15499	3.6396e+006
15500	2.8595e+006
15500	1.6809e+006
15501	1.234e+006
15501	1.9158e+006
15502	2.8691e+006
15502	1.8424e+006
15503	3.9976e+006
15503	5.2504e+006
15504	4.1676e+006
15504	4.2726e+006
15505	4.8038e+006
15505	4.3008e+006
15506	5.0474e+006
15506	4.5347e+006
15507	8.3195e+006
15507	7.5064e+006
15508	4.4075e+006
15508	4.5177e+006
15509	5.187e+006
15509	5.8576e+006
15510	3.9519e+006
15510	2.2738e+006
15511	3.1598e+006
15511	4.8752e+006
15512	2.4974e+006
15512	1.3125e+006
15513	3.9751e+006
15513	5.8404e+006
15514	7.5287e+006
15514	9.2153e+006
15515	3.0532e+006
15515	4.6853e+006
15516	3.8203e+006
15516	4.1022e+006
15517	4.2361e+006
15517	4.8834e+006
15518	7.4944e+006
15518	7.2505e+006
15519	4.5456e+006
15519	4.2792e+006
15520	1.6622e+006
15520	3.1372e+006
15521	2.5678e+006
15521	2.2985e+006
15522	2.9315e+006
15522	3.7383e+006
15523	4.2886e+006
15523	3.8444e+006
15524	4.2793e+006
15524	6.342e+006
15525	2.396e+006
15525	5.7009e+006
15526	3.6022e+006
15526	2.9993e+006
15527	6.1826e+006
15527	4.5372e+006
15528	3.6816e+006
15528	2.8332e+006
15529	4.7977e+006
15529	6.555e+006
15530	4.9548e+006
15530	4.1079e+006
15531	2.5434e+006
15531	2.9379e+006
15532	5.4085e+006
15532	5.0873e+006
15533	3.6277e+006
15533	3.7512e+006
15534	5.6718e+006
15534	6.5998e+006
15535	3.9161e+006
15535	3.0347e+006
15536	4.427e+006
15536	5.5681e+006
15537	3.31e+006
15537	3.5752e+006
15538	3.6762e+006
15538	3.5126e+006
15539	1.7394e+006
15539	1.1446e+006
15540	4.5795e+006
15540	4.3354e+006
15541	2.0696e+006
15541	1.6605e+006
15542	5.883e+006
15542	5.5323e+006
15543	4.7638e+006
15543	5.1871e+006
15544	4.0919e+006
15544	3.2382e+006
15545	1.0463e+006
15545	2.1326e+006
15546	4.0754e+006
15546	4.1086e+006
15547	9.7283e+006
15547	6.9213e+006
15548	2.4744e+006
15548	1.5347e+006
15549	2.9642e+006
15549	1.8323e+006
15550	2.0665e+006
15550	2.0296e+006
15551	1.8878e+006
15551	7.2716e+005
15552	1.3452e+006
15552	1.8662e+006
15553	3.8589e+006
15553	5.4358e+006
15554	1.305e+006
15554	2.2575e+006
15555	3.4564e+006
15555	3.3944e+006
15556	1.6326e+006
15556	1.3947e+006
15557	2.272e+006
15557	2.0936e+006
15558	3.1255e+006
15558	3.3003e+006
15559	1.3909e+006
15559	1.0756e+006
15560	1.3968e+006
15560	1.4124e+006
15561	2.2509e+006
15561	1.5614e+006
15562	1.8033e+006
15562	8.9235e+005
15563	5.1967e+006
15563	4.5958e+006
15564	8.5435e+005
15564	9.184e+005
15565	1.8182e+006
15565	1.7429e+006
15566	1.5016e+005
15566	7.8911e+005
15567	5.7254e+005
15567	2.1036e+006
15568	2.4668e+006
15568	2.1132e+006
15569	3.705e+005
15569	6.6604e+005
15570	6.8477e+005
15570	3.8349e+005
15571	1.5254e+006
15571	1.5851e+006
15572	1.3921e+006
15572	3.2721e+005
15573	0.
15573	0.
15574	0.
15574	0.
15575	0.
15575	0.
15576	7.321e+005
15576	1.2942e+006
15577	0.
15577	0.
15578	0.
15578	0.
15579	1.0711e+006
15579	4.2863e+005
15580	1.5794e+006
15580	9.8377e+005
15581	4.3542e+006
15581	5.266e+006
15582	0.
15582	0.
15583	0.
15583	0.
15584	7.5268e+005
15584	9.6963e+005
15585	3.1425e+005
15585	2.4642e+005
15586	1.2268e+006
15586	1.4611e+006
15587	8.0182e+005
15587	5.0363e+005
15588	7.1256e+006
15588	7.8286e+006
15589	3.5884e+006
15589	4.0457e+006
15590	2.6399e+006
15590	2.3966e+006
15591	4.7286e+006
15591	5.0795e+006
15592	8.3752e+006
15592	7.9497e+006
15593	0.
15593	0.
15594	0.
15594	0.
15595	0.
15595	0.
15596	0.
15596	0.
15597	0.
15597	0.
15598	41339
15598	1.1866e+005
15599	1.8731e+005
15599	2.4839e+005
15600	0.
15600	0.
15601	0.
15601	0.
15602	0.
15602	0.
15603	6.465e+005
15603	8.525e+005
15604	0.
15604	0.
15605	0.
15605	0.
15606	0.
15606	0.
15607	0.
15607	0.
15608	0.
15608	0.
15609	0.
15609	0.
15610	614.52
15610	472.2
15611	4700.6
15611	4366.1
15612	34585
15612	36382
15613	1401.4
15613	1426.1
15614	5006.3
15614	5108.9
15615	36567
15615	42122
15616	2196.9
15616	2689.9
15617	21735
15617	14449
15618	0.
15618	0.
15619	0.
15619	0.
15620	0.
15620	0.
15621	0.
15621	0.
15622	0.
15622	0.
15623	0.
15623	0.
15624	0.
15624	0.
15625	0.
15625	0.
15626	0.
15626	0.
15627	0.
15627	0.
15628	0.
15628	0.
15629	0.
15629	0.
15630	0.
15630	0.
15631	0.
15631	0.
15632	0.
15632	0.
15633	0.
15633	0.
15634	0.
15634	0.
15635	0.
15635	0.
15636	0.
15636	0.
15637	0.
15637	0.
15638	0.
15638	0.
15639	0.
15639	0.
15640	0.
15640	0.
15641	0.
15641	0.
15642	0.
15642	0.
15643	0.
15643	0.
15644	0.
15644	0.
15645	0.
15645	0.
15646	0.
15646	0.
15647	0.
15647	0.
15648	0.
15648	0.
15649	0.
15649	0.
15650	0.
15650	0.
15651	0.
15651	0.
15652	0.
15652	0.
15653	0.
15653	0.
15654	0.
15654	0.
15655	0.
15655	0.
15656	0.
15656	0.
15657	0.
15657	0.
15658	0.
15658	0.
15659	0.
15659	0.
15660	0.
15660	0.
15661	0.
15661	0.
15662	0.
15662	0.
15663	0.
15663	0.
15664	0.
15664	0.
15665	0.
15665	0.
15666	0.
15666	0.
15667	0.
15667	0.
15668	0.
15668	0.
15669	0.
15669	0.
15670	0.
15670	0.
15671	0.
15671	0.
15672	0.
15672	0.
15673	0.
15673	0.
15674	0.
15674	0.
15675	0.
15675	0.
15676	0.
15676	0.
15677	0.
15677	0.
15678	1.0742e+005
15678	3.4026e+005
15679	1.6822e+006
15679	1.252e+006
15680	1.6093e+006
15680	1.0554e+006
15681	2.195e+006
15681	1.554e+006
15682	2.1284e+006
15682	1.6221e+006
15683	2.4606e+006
15683	1.5553e+006
15684	6.6229e+005
15684	5.6213e+005
15685	9.2877e+005
15685	1.368e+006
15686	1.3822e+006
15686	2.2408e+006
15687	1.1426e+006
15687	1.2345e+006
15688	1.0075e+006
15688	1.0345e+006
15689	1.4714e+006
15689	2.3379e+006
15690	2.7604e+006
15690	2.182e+006
15691	8.5634e+005
15691	2.6976e+005
15692	3.3408e+005
15692	9.0249e+005
15693	5.2365e+005
15693	2.6976e+006
15694	1.312e+006
15694	1.19e+006
15695	8.1688e+005
15695	1.6668e+006
15696	1.1486e+006
15696	9.9948e+005
15697	1.6029e+005
15697	1.5366e+006
15698	3.7723e+005
15698	1.0024e+006
15699	5.0796e+005
15699	7.8256e+005
15700	8.3605e+005
15700	5.1764e+005
15701	2.648e+006
15701	2.1512e+006
15702	2.0013e+006
15702	7.7694e+005
15703	1.1261e+006
15703	6.1494e+005
15704	1.3262e+006
15704	1.0624e+006
15705	1.1805e+006
15705	5.3214e+005
15706	8.6818e+005
15706	1.4414e+006
15707	2.0393e+006
15707	1.1255e+006
15708	1.5313e+006
15708	1.0105e+006
15709	1.6971e+006
15709	1.0794e+006
15710	1.3467e+006
15710	1.1142e+006
15711	1.0017e+006
15711	2.0343e+006
15712	8.6048e+005
15712	1.0167e+006
15713	1.2593e+006
15713	8.1415e+005
15714	1.0037e+006
15714	1.3338e+006
15715	1.2663e+006
15715	1.0669e+006
15716	6.1653e+005
15716	1.6572e+006
15717	1.0456e+006
15717	1.1537e+006
15718	8.6327e+005
15718	5.7545e+005
15719	1.4524e+006
15719	1.2866e+006
15720	8.867e+005
15720	1.0278e+006
15721	1.3737e+006
15721	1.3357e+006
15722	1.7057e+006
15722	8.7556e+005
15723	1.4035e+006
15723	1.2756e+006
15724	5.3603e+005
15724	6.0707e+005
15725	1.6596e+006
15725	1.2288e+006
15726	1.3326e+006
15726	9.547e+005
15727	3.7112e+005
15727	1.113e+006
15728	1.2514e+006
15728	1.2046e+006
15729	2.6778e+006
15729	2.4619e+006
15730	5.6177e+005
15730	6.721e+005
15731	1.8091e+006
15731	1.2893e+006
15732	1.9611e+006
15732	1.9308e+006
15733	2.8097e+006
15733	1.5445e+006
15734	1.0173e+006
15734	7.074e+005
15735	1.4469e+006
15735	1.5484e+006
15736	9.2188e+005
15736	6.2049e+005
15737	1.078e+006
15737	1.6553e+006
15738	6.8457e+005
15738	1.4485e+006
15739	1.3347e+006
15739	1.1885e+006
15740	3.1931e+006
15740	2.6001e+006
15741	1.7816e+006
15741	2.5296e+006
15742	2.4848e+006
15742	2.448e+006
15743	1.1757e+006
15743	1.452e+006
15744	2.787e+006
15744	3.615e+006
15745	2.7953e+006
15745	1.647e+006
15746	2.6157e+006
15746	2.8057e+006
15747	1.8557e+006
15747	1.6249e+006
15748	1.4676e+006
15748	1.0496e+006
15749	3.0276e+006
15749	2.3731e+006
15750	2.2186e+006
15750	2.0105e+006
15751	9.3238e+005
15751	1.4395e+006
15752	2.129e+006
15752	2.1629e+006
15753	2.0931e+006
15753	1.8915e+006
15754	1.86e+006
15754	3.3217e+006
15755	3.4867e+006
15755	1.9152e+006
15756	4.2206e+006
15756	2.9173e+006
15757	1.7489e+006
15757	7.2774e+005
15758	2.9065e+006
15758	3.4755e+006
15759	2.3353e+006
15759	1.2617e+006
15760	1.8433e+006
15760	1.8288e+006
15761	3.4068e+006
15761	3.091e+006
15762	1.0639e+006
15762	2.1462e+006
15763	2.5612e+006
15763	4.0821e+006
15764	2.2645e+006
15764	2.2123e+006
15765	1.9632e+006
15765	1.5277e+006
15766	3.714e+006
15766	3.267e+006
15767	2.5684e+006
15767	2.4647e+006
15768	6.8312e+006
15768	6.6396e+006
15769	5.3924e+006
15769	4.9055e+006
15770	1.736e+006
15770	1.6515e+006
15771	2.6148e+006
15771	2.7779e+006
15772	1.8015e+006
15772	1.7273e+006
15773	1.7956e+006
15773	1.2647e+006
15774	2.0031e+006
15774	1.0303e+006
15775	2.8834e+006
15775	2.0373e+006
15776	2.4601e+006
15776	1.5925e+006
15777	2.7485e+006
15777	1.0926e+006
15778	2.409e+006
15778	2.1288e+006
15779	1.2228e+006
15779	2.3583e+006
15780	3.189e+006
15780	2.3342e+006
15781	1.0704e+006
15781	3.6227e+006
15782	2.766e+006
15782	1.7507e+006
15783	3.0932e+006
15783	2.8755e+006
15784	2.0714e+006
15784	1.5556e+006
15785	3.1474e+006
15785	9.4382e+005
15786	2.8782e+006
15786	3.0799e+006
15787	2.9394e+006
15787	2.7442e+006
15788	4.0835e+006
15788	4.3435e+006
15789	1.985e+006
15789	1.8504e+006
15790	1.8179e+006
15790	1.7425e+006
15791	2.1335e+006
15791	1.7757e+006
15792	3.288e+006
15792	3.2291e+006
15793	2.771e+006
15793	2.5052e+006
15794	1.8379e+006
15794	2.0686e+006
15795	4.0484e+006
15795	3.4662e+006
15796	3.1641e+006
15796	3.6249e+006
15797	3.3063e+006
15797	2.6607e+006
15798	1.9696e+006
15798	1.6142e+006
15799	1.6374e+006
15799	1.6209e+006
15800	1.5783e+006
15800	1.3632e+006
15801	2.6663e+006
15801	7.5895e+005
15802	2.4982e+006
15802	2.0159e+006
15803	1.663e+006
15803	1.3975e+006
15804	2.4918e+006
15804	1.5614e+006
15805	1.7779e+006
15805	1.0667e+006
15806	1.6996e+006
15806	2.1449e+006
15807	1.6587e+006
15807	1.5856e+006
15808	1.3584e+006
15808	2.0013e+006
15809	1.3158e+006
15809	6.5296e+005
15810	1.2227e+006
15810	7.7535e+005
15811	3.9482e+006
15811	3.6064e+006
15812	4.5517e+005
15812	1.0028e+006
15813	2.5323e+006
15813	2.1812e+006
15814	1.007e+006
15814	9.5554e+005
15815	1.6299e+006
15815	1.1669e+006
15816	5.7306e+006
15816	3.1151e+006
15817	4.1359e+006
15817	3.6939e+006
15818	4.5324e+006
15818	4.1176e+006
15819	1.6993e+006
15819	1.8957e+006
15820	2.9348e+006
15820	3.3671e+006
15821	4.3384e+006
15821	4.5701e+006
15822	6.8042e+005
15822	2.4133e+006
15823	2.0259e+006
15823	1.4799e+006
15824	1.6802e+006
15824	1.692e+006
15825	2.6317e+006
15825	3.6184e+006
15826	2.2513e+006
15826	3.164e+006
15827	1.388e+006
15827	2.947e+006
15828	1.213e+006
15828	3.7808e+006
15829	1.3914e+006
15829	2.6356e+006
15830	1.3819e+006
15830	2.2528e+006
15831	3.5904e+006
15831	3.5358e+006
15832	1.7974e+006
15832	1.4323e+006
15833	2.0332e+006
15833	2.3734e+006
15834	1.6848e+006
15834	1.6869e+006
15835	3.7348e+006
15835	3.3566e+006
15836	2.5921e+006
15836	2.7318e+006
15837	1.9592e+006
15837	2.1891e+006
15838	3.4608e+006
15838	3.2036e+006
15839	4.5452e+006
15839	4.2504e+006
15840	3.6561e+006
15840	4.1681e+006
15841	1.5917e+006
15841	1.3694e+006
15842	2.2911e+006
15842	3.1872e+006
15843	3.2337e+006
15843	3.8198e+006
15844	1.2061e+006
15844	1.7758e+006
15845	2.6885e+006
15845	3.6173e+006
15846	7.1041e+006
15846	4.1964e+006
15847	8.1989e+006
15847	3.8573e+006
15848	1.9715e+006
15848	1.7991e+006
15849	2.8307e+006
15849	1.8168e+006
15850	1.8493e+006
15850	1.6116e+006
15851	1.8548e+006
15851	2.5178e+006
15852	1.3652e+006
15852	2.3372e+006
15853	1.2621e+006
15853	2.3692e+006
15854	3.3272e+006
15854	2.66e+006
15855	2.4511e+006
15855	1.6745e+006
15856	1.7618e+006
15856	2.8836e+006
15857	1.4579e+006
15857	1.7385e+006
15858	4.3029e+006
15858	4.0799e+006
15859	7.0802e+006
15859	4.5298e+006
15860	1.3213e+006
15860	3.0036e+006
15861	3.0348e+006
15861	3.3576e+006
15862	3.4052e+006
15862	1.5578e+006
15863	2.0663e+006
15863	2.7401e+006
15864	1.7342e+006
15864	2.5765e+006
15865	1.9351e+006
15865	2.5789e+006
15866	2.6846e+006
15866	2.0961e+006
15867	2.1393e+006
15867	2.2575e+006
15868	2.7608e+006
15868	2.2591e+006
15869	2.9866e+006
15869	1.9702e+006
15870	1.7154e+006
15870	1.7589e+006
15871	6.2306e+005
15871	1.097e+006
15872	2.0238e+006
15872	1.6092e+006
15873	1.9997e+006
15873	2.2636e+006
15874	1.0666e+006
15874	6.2348e+005
15875	1.8767e+006
15875	1.8368e+006
15876	2.0032e+006
15876	1.7408e+006
15877	8.0833e+005
15877	6.0569e+005
15878	5.6376e+006
15878	4.0093e+006
15879	1.7591e+006
15879	1.8809e+006
15880	3.7005e+006
15880	2.9858e+006
15881	2.2966e+006
15881	2.7399e+006
15882	3.3391e+006
15882	2.2376e+006
15883	2.6601e+006
15883	1.6617e+006
15884	4.3708e+006
15884	3.8611e+006
15885	6.8185e+006
15885	4.7401e+006
15886	2.5976e+006
15886	2.1e+006
15887	1.4758e+006
15887	1.6878e+006
15888	2.3243e+006
15888	1.1976e+006
15889	1.4404e+006
15889	1.5108e+006
15890	2.2303e+006
15890	1.1618e+006
15891	3.4171e+006
15891	2.8636e+006
15892	1.5477e+006
15892	2.1517e+006
15893	2.2754e+006
15893	2.4292e+006
15894	1.7897e+006
15894	1.3022e+006
15895	3.2717e+006
15895	3.071e+006
15896	3.1219e+006
15896	3.4886e+006
15897	3.4254e+006
15897	4.2085e+006
15898	4.3986e+006
15898	4.0266e+006
15899	2.9803e+006
15899	3.3292e+006
15900	4.9235e+006
15900	4.1519e+006
15901	2.2175e+006
15901	2.1872e+006
15902	2.8676e+006
15902	3.2389e+006
15903	1.4761e+006
15903	3.4571e+006
15904	2.1235e+006
15904	1.5425e+006
15905	4.226e+006
15905	2.5504e+006
15906	1.6215e+006
15906	1.3318e+006
15907	3.8323e+006
15907	3.0865e+006
15908	2.3308e+006
15908	3.0161e+006
15909	2.0249e+006
15909	3.1083e+006
15910	4.9492e+006
15910	2.9424e+006
15911	1.6938e+006
15911	1.3631e+006
15912	2.3902e+006
15912	1.6318e+006
15913	1.369e+006
15913	2.2362e+006
15914	1.462e+006
15914	2.1714e+006
15915	3.7521e+006
15915	1.8526e+006
15916	2.3806e+006
15916	1.8742e+006
15917	3.9394e+006
15917	3.141e+006
15918	4.4031e+006
15918	3.1259e+006
15919	5.5927e+006
15919	4.5614e+006
15920	4.5222e+006
15920	4.2086e+006
15921	3.2745e+006
15921	3.4023e+006
15922	4.2666e+006
15922	5.0242e+006
15923	5.6858e+006
15923	4.4524e+006
15924	4.7883e+006
15924	3.6688e+006
15925	3.8566e+006
15925	2.1022e+006
15926	1.5444e+006
15926	1.9913e+006
15927	1.0373e+006
15927	2.7257e+006
15928	3.5244e+006
15928	3.4661e+006
15929	2.1916e+006
15929	1.5937e+006
15930	1.5291e+006
15930	6.1179e+005
15931	2.609e+006
15931	2.4417e+006
15932	1.0558e+006
15932	1.3763e+006
15933	3.9164e+006
15933	2.4363e+006
15934	3.3643e+006
15934	2.0042e+006
15935	1.8551e+006
15935	1.9393e+006
15936	1.3741e+006
15936	1.5838e+006
15937	2.2822e+006
15937	1.7606e+006
15938	1.3434e+006
15938	2.0367e+006
15939	2.1319e+006
15939	2.2993e+006
15940	2.9752e+006
15940	2.4036e+006
15941	1.6969e+006
15941	1.0225e+006
15942	2.4555e+006
15942	2.2415e+006
15943	2.0639e+006
15943	1.5795e+006
15944	1.9097e+006
15944	2.4852e+006
15945	1.4337e+006
15945	1.5843e+006
15946	1.0463e+006
15946	1.1035e+006
15947	1.0303e+006
15947	2.1273e+006
15948	1.4156e+006
15948	1.4949e+006
15949	1.8804e+006
15949	1.5468e+006
15950	4.2327e+005
15950	2.0198e+006
15951	3.4576e+006
15951	1.8578e+006
15952	1.0504e+006
15952	1.7091e+006
15953	2.6448e+006
15953	2.7235e+006
15954	1.7085e+006
15954	5.3972e+006
15955	1.2442e+006
15955	1.8196e+006
15956	4.0415e+006
15956	3.8295e+006
15957	5.0399e+006
15957	5.8418e+006
15958	5.2086e+006
15958	5.269e+006
15959	1.6955e+006
15959	1.3181e+006
15960	2.7218e+006
15960	3.1081e+006
15961	1.0403e+006
15961	1.0664e+006
15962	3.6353e+006
15962	3.2583e+006
15963	2.3371e+006
15963	2.9232e+006
15964	4.0805e+006
15964	3.7855e+006
15965	3.1196e+006
15965	4.5952e+006
15966	2.701e+006
15966	3.3263e+006
15967	4.2575e+006
15967	2.9263e+006
15968	3.3569e+006
15968	3.8226e+006
15969	4.2055e+006
15969	4.3085e+006
15970	3.1133e+006
15970	2.1903e+006
15971	2.4529e+006
15971	2.7889e+006
15972	1.557e+006
15972	2.4914e+006
15973	3.1695e+006
15973	1.841e+006
15974	1.8722e+006
15974	1.3381e+006
15975	2.5953e+006
15975	2.8298e+006
15976	2.5347e+006
15976	2.7675e+006
15977	3.4277e+006
15977	3.0832e+006
15978	3.7818e+006
15978	2.1879e+006
15979	1.5414e+006
15979	1.4256e+006
15980	3.1092e+006
15980	3.1605e+006
15981	2.4666e+006
15981	2.3377e+006
15982	3.7881e+006
15982	3.4898e+006
15983	3.0572e+006
15983	3.4765e+006
15984	5.9761e+006
15984	5.2869e+006
15985	3.6141e+006
15985	3.5748e+006
15986	1.5839e+006
15986	1.9321e+006
15987	1.5601e+006
15987	3.1121e+006
15988	2.9063e+006
15988	4.6014e+006
15989	4.1457e+006
15989	3.9854e+006
15990	3.1464e+006
15990	3.6559e+006
15991	1.3329e+006
15991	1.4302e+006
15992	2.1334e+006
15992	1.0632e+006
15993	6.2994e+006
15993	4.7478e+006
15994	1.6833e+006
15994	7.9506e+005
15995	2.5646e+006
15995	1.8088e+006
15996	2.4806e+006
15996	2.7633e+006
15997	6.4042e+006
15997	4.7179e+006
15998	1.8685e+006
15998	2.3006e+006
15999	7.6982e+005
15999	1.3405e+006
16000	2.0534e+006
16000	2.5261e+006
16001	2.1635e+006
16001	1.1834e+006
16002	2.5415e+006
16002	2.5382e+006
16003	1.2196e+006
16003	1.7409e+006
16004	2.1134e+006
16004	8.2476e+005
16005	1.9957e+006
16005	2.5074e+006
16006	1.4946e+006
16006	2.3782e+006
16007	1.602e+006
16007	2.2229e+006
16008	3.0646e+006
16008	3.2213e+006
16009	1.8853e+006
16009	2.4753e+006
16010	2.5796e+006
16010	1.4973e+006
16011	6.6428e+005
16011	1.4218e+006
16012	1.1208e+006
16012	8.0576e+005
16013	2.5425e+006
16013	3.0861e+006
16014	9.3007e+005
16014	2.1016e+006
16015	1.9878e+006
16015	8.8603e+005
16016	1.0423e+006
16016	7.5848e+005
16017	2.1178e+006
16017	2.4923e+006
16018	2.3535e+006
16018	1.6762e+006
16019	1.9298e+006
16019	2.4862e+006
16020	2.1267e+006
16020	2.8432e+006
16021	2.067e+006
16021	2.6916e+006
16022	1.9731e+006
16022	3.6529e+006
16023	2.6736e+006
16023	1.5794e+006
16024	4.2992e+006
16024	3.3243e+006
16025	5.5008e+006
16025	3.0335e+006
16026	3.7747e+006
16026	2.4583e+006
16027	1.0411e+006
16027	1.8002e+006
16028	2.9883e+006
16028	3.2649e+006
16029	2.1949e+006
16029	1.5324e+006
16030	2.0362e+006
16030	2.8433e+006
16031	1.2801e+006
16031	1.5869e+006
16032	1.0696e+006
16032	1.1246e+006
16033	1.7486e+006
16033	2.5117e+006
16034	1.3359e+006
16034	1.035e+006
16035	2.4406e+006
16035	2.4653e+006
16036	8.4031e+005
16036	1.4191e+006
16037	1.0715e+006
16037	1.2996e+006
16038	1.8365e+006
16038	1.1162e+006
16039	2.3424e+006
16039	1.8133e+006
16040	1.5775e+006
16040	2.4679e+006
16041	1.149e+006
16041	1.6865e+006
16042	5.3791e+006
16042	2.8507e+006
16043	5.8138e+006
16043	2.1315e+006
16044	1.7308e+006
16044	1.0167e+006
16045	4.573e+006
16045	3.0725e+006
16046	3.4274e+006
16046	3.5868e+006
16047	1.6891e+006
16047	1.448e+006
16048	3.8538e+006
16048	4.0132e+006
16049	1.5151e+006
16049	2.1221e+006
16050	2.6563e+006
16050	1.8346e+006
16051	4.9332e+006
16051	2.2786e+006
16052	2.4909e+006
16052	2.7638e+006
16053	4.5309e+006
16053	4.5059e+006
16054	2.8763e+006
16054	1.7754e+006
16055	1.2339e+006
16055	2.1508e+006
16056	2.5305e+006
16056	2.3197e+006
16057	3.8291e+005
16057	2.0801e+006
16058	1.1571e+006
16058	2.5392e+006
16059	5.2196e+006
16059	5.9246e+006
16060	3.2227e+006
16060	4.2456e+006
16061	3.133e+006
16061	2.3639e+006
16062	3.0854e+006
16062	2.5895e+006
16063	3.6928e+006
16063	5.3992e+006
16064	2.6048e+006
16064	3.7353e+006
16065	1.6997e+006
16065	1.6331e+006
16066	1.902e+006
16066	1.3068e+006
16067	2.7908e+006
16067	2.791e+006
16068	1.7814e+006
16068	2.4095e+006
16069	3.5863e+006
16069	4.008e+006
16070	2.3489e+006
16070	3.1794e+006
16071	3.5586e+005
16071	2.1743e+006
16072	1.2367e+006
16072	1.2031e+006
16073	9.0929e+006
16073	6.239e+006
16074	1.8996e+006
16074	1.5235e+006
16075	1.8331e+006
16075	1.4032e+006
16076	2.0549e+006
16076	2.3741e+006
16077	3.0666e+006
16077	3.9728e+006
16078	1.0667e+006
16078	1.8681e+006
16079	1.9091e+006
16079	1.7951e+006
16080	2.0602e+006
16080	1.6682e+006
16081	9.875e+005
16081	9.4418e+005
16082	2.1493e+006
16082	2.8176e+006
16083	3.4763e+006
16083	2.1171e+006
16084	8.0392e+005
16084	2.1596e+006
16085	1.7418e+006
16085	9.8618e+005
16086	5.6798e+006
16086	5.1167e+006
16087	1.6328e+006
16087	2.1181e+006
16088	9.8339e+005
16088	8.7968e+005
16089	3.4749e+006
16089	2.767e+006
16090	1.8702e+006
16090	8.3014e+005
16091	1.5371e+006
16091	1.1462e+006
16092	1.7816e+006
16092	2.2264e+006
16093	3.8338e+006
16093	3.676e+006
16094	1.4949e+006
16094	1.2299e+006
16095	3.1221e+006
16095	3.2969e+006
16096	0.
16096	0.
16097	0.
16097	0.
16098	0.
16098	0.
16099	0.
16099	0.
16100	2.7134e+006
16100	1.0548e+006
16101	3.0785e+006
16101	3.1577e+006
16102	49111
16102	36085
16103	0.
16103	0.
16104	0.
16104	0.
16105	3.1349e+005
16105	3.387e+005
16106	0.
16106	0.
16107	0.
16107	0.
16108	7.0012e+005
16108	3.026e+005
16109	3.5374e+006
16109	4.2435e+006
16110	0.
16110	0.
16111	0.
16111	0.
16112	0.
16112	0.
16113	0.
16113	0.
16114	1.5912e+005
16114	2.1548e+005
16115	4.0316e+005
16115	4.2903e+005
16116	7.3959e+005
16116	1.0822e+006
16117	0.
16117	0.
16118	0.
16118	0.
16119	0.
16119	0.
16120	0.
16120	0.
16121	0.
16121	0.
16122	0.
16122	0.
16123	0.
16123	0.
16124	0.
16124	0.
16125	0.
16125	0.
16126	0.
16126	0.
16127	0.
16127	0.
16128	0.
16128	0.
16129	0.
16129	0.
16130	0.
16130	0.
16131	0.
16131	0.
16132	0.
16132	0.
16133	0.
16133	0.
16134	4407.6
16134	5325.1
16135	0.
16135	0.
16136	0.
16136	0.
16137	0.
16137	0.
16138	0.
16138	0.
16139	0.
16139	0.
16140	0.
16140	0.
16141	0.
16141	0.
16142	0.
16142	0.
16143	0.
16143	0.
16144	0.
16144	0.
16145	0.
16145	0.
16146	0.
16146	0.
16147	0.
16147	0.
16148	0.
16148	0.
16149	0.
16149	0.
16150	0.
16150	0.
16151	12843
16151	5514.5
16152	19472
16152	10559
16153	0.
16153	0.
16154	0.
16154	0.
16155	0.
16155	0.
16156	0.
16156	0.
16157	0.
16157	0.
16158	0.
16158	0.
16159	0.
16159	0.
16160	0.
16160	0.
16161	0.
16161	0.
16162	0.
16162	0.
16163	0.
16163	0.
16164	0.
16164	0.
16165	0.
16165	0.
16166	0.
16166	0.
16167	0.
16167	0.
16168	0.
16168	0.
16169	0.
16169	0.
16170	0.
16170	0.
16171	0.
16171	0.
16172	0.
16172	0.
16173	0.
16173	0.
16174	0.
16174	0.
16175	0.
16175	0.
16176	0.
16176	0.
16177	0.
16177	0.
16178	0.
16178	0.
16179	0.
16179	0.
16180	0.
16180	0.
16181	0.
16181	0.
16182	0.
16182	0.
16183	0.
16183	0.
16184	0.
16184	0.
16185	0.
16185	0.
16186	0.
16186	0.
16187	0.
16187	0.
16188	0.
16188	0.
16189	0.
16189	0.
16190	0.
16190	0.
16191	0.
16191	0.
16192	0.
16192	0.
16193	0.
16193	0.
16194	0.
16194	0.
16195	0.
16195	0.
16196	0.
16196	0.
16197	0.
16197	0.
16198	0.
16198	0.
16199	0.
16199	0.
16200	0.
16200	0.
16201	0.
16201	0.
16202	0.
16202	0.
16203	0.
16203	0.
16204	0.
16204	0.
16205	0.
16205	0.
16206	0.
16206	0.
16207	0.
16207	0.
16208	0.
16208	0.
16209	0.
16209	0.
16210	0.
16210	0.
16211	0.
16211	0.
16212	0.
16212	0.
16213	0.
16213	0.
16214	1.2356e+006
16214	1.6812e+006
16215	5.9516e+005
16215	1.0724e+006
16216	8.8465e+005
16216	1.0496e+006
16217	2.1937e+006
16217	1.0641e+006
16218	1.1944e+006
16218	1.6466e+006
16219	9.5471e+005
16219	8.4223e+005
16220	1.9694e+006
16220	2.2229e+006
16221	1.4054e+006
16221	1.757e+006
16222	1.4013e+006
16222	1.1305e+006
16223	4.9341e+005
16223	1.32e+006
16224	1.1619e+006
16224	9.8625e+005
16225	1.4745e+006
16225	1.008e+006
16226	4.5554e+005
16226	1.2227e+006
16227	5.7259e+005
16227	5.372e+005
16228	1.0974e+006
16228	1.9298e+006
16229	1.6747e+006
16229	2.012e+006
16230	1.02e+006
16230	1.1076e+006
16231	1.4677e+006
16231	1.2181e+006
16232	1.1428e+006
16232	1.3957e+006
16233	1.7494e+006
16233	1.4027e+006
16234	1.0549e+006
16234	2.5874e+005
16235	1.5634e+006
16235	1.2299e+006
16236	1.5035e+006
16236	1.6017e+006
16237	8.4221e+005
16237	1.5568e+006
16238	7.9051e+005
16238	1.4333e+006
16239	3.4011e+006
16239	1.5312e+006
16240	1.4511e+006
16240	1.0829e+006
16241	1.0124e+006
16241	1.4226e+006
16242	7.334e+005
16242	1.1596e+006
16243	1.2365e+006
16243	1.3644e+006
16244	7.5917e+005
16244	1.0934e+006
16245	6.9975e+005
16245	1.5072e+006
16246	1.5161e+006
16246	1.0548e+006
16247	1.0364e+006
16247	1.1305e+006
16248	2.2721e+006
16248	8.7864e+005
16249	2.1369e+006
16249	7.2842e+005
16250	1.4228e+006
16250	3.5988e+005
16251	1.43e+006
16251	8.6887e+005
16252	8.5921e+005
16252	7.6457e+005
16253	1.6352e+006
16253	1.7459e+006
16254	7.9099e+006
16254	7.1746e+006
16255	1.7751e+006
16255	3.79e+006
16256	2.1228e+006
16256	3.0472e+006
16257	4.25e+006
16257	2.6122e+006
16258	7.6274e+006
16258	8.5613e+006
16259	1.1213e+006
16259	3.7791e+006
16260	4.075e+006
16260	2.3883e+006
16261	2.727e+006
16261	2.3208e+006
16262	9.0334e+006
16262	1.0069e+007
16263	3.1299e+006
16263	3.4264e+006
16264	2.877e+006
16264	1.8996e+006
16265	2.2726e+006
16265	4.126e+006
16266	1.9997e+006
16266	2.3362e+006
16267	4.7177e+006
16267	7.1223e+006
16268	2.661e+006
16268	2.0742e+006
16269	2.6938e+006
16269	2.0465e+006
16270	2.1801e+006
16270	2.6387e+006
16271	3.7868e+006
16271	3.8074e+006
16272	5.377e+006
16272	4.3859e+006
16273	1.4293e+006
16273	7.6174e+005
16274	1.9745e+006
16274	1.2493e+006
16275	1.3901e+006
16275	2.6173e+006
16276	1.1852e+006
16276	1.5909e+006
16277	9.4184e+005
16277	2.1602e+006
16278	1.3045e+006
16278	2.166e+006
16279	1.0492e+006
16279	2.9861e+005
16280	9.3361e+005
16280	3.2364e+005
16281	3.4531e+006
16281	2.4259e+006
16282	3.9401e+005
16282	3.7772e+005
16283	1.6057e+006
16283	8.2263e+005
16284	2.5085e+006
16284	1.4408e+006
16285	9.0355e+005
16285	3.9359e+006
16286	1.5274e+006
16286	2.1578e+006
16287	1.3053e+006
16287	1.4011e+006
16288	1.0225e+006
16288	9.127e+005
16289	5.1654e+005
16289	6.4871e+005
16290	1.5927e+006
16290	1.9206e+006
16291	1.9476e+006
16291	1.7231e+006
16292	2.4871e+006
16292	2.9602e+006
16293	2.5285e+006
16293	2.1268e+006
16294	6.5019e+006
16294	5.792e+006
16295	3.6405e+006
16295	2.763e+006
16296	4.2809e+006
16296	2.9451e+006
16297	4.9702e+006
16297	3.4836e+006
16298	3.901e+006
16298	2.3646e+006
16299	3.6031e+006
16299	2.6094e+006
16300	4.8264e+006
16300	2.561e+006
16301	2.1593e+006
16301	1.5631e+006
16302	2.1611e+006
16302	2.5371e+006
16303	6.8849e+006
16303	5.6996e+006
16304	3.4048e+006
16304	3.6845e+006
16305	4.5634e+006
16305	4.2768e+006
16306	2.1844e+006
16306	2.6911e+006
16307	2.1923e+006
16307	2.1195e+006
16308	2.6413e+006
16308	2.9614e+006
16309	1.8247e+006
16309	1.9643e+006
16310	1.455e+006
16310	1.93e+006
16311	1.8473e+006
16311	2.0963e+006
16312	2.7412e+006
16312	1.9234e+006
16313	1.5443e+006
16313	1.2908e+006
16314	2.7821e+006
16314	2.7821e+006
16315	3.0717e+006
16315	1.9535e+006
16316	3.6751e+006
16316	2.7042e+006
16317	1.9552e+006
16317	2.813e+006
16318	1.0139e+006
16318	2.9944e+006
16319	1.0698e+006
16319	1.5918e+006
16320	2.7262e+006
16320	2.4801e+006
16321	1.2372e+006
16321	1.5825e+006
16322	2.1545e+006
16322	1.1636e+006
16323	7.8239e+005
16323	5.3028e+005
16324	1.0986e+006
16324	7.936e+005
16325	8.6989e+005
16325	8.3565e+005
16326	1.3938e+006
16326	9.0831e+005
16327	1.7166e+006
16327	1.6064e+006
16328	9.7504e+005
16328	3.0299e+006
16329	1.6584e+006
16329	2.1243e+006
16330	1.4491e+006
16330	1.7447e+006
16331	6.6169e+005
16331	1.5091e+006
16332	4.2242e+005
16332	5.1231e+005
16333	8.9386e+005
16333	2.1984e+006
16334	1.4202e+006
16334	1.6032e+006
16335	1.413e+006
16335	1.3568e+006
16336	1.476e+006
16336	1.4444e+006
16337	1.3462e+006
16337	1.2397e+006
16338	1.2923e+006
16338	1.558e+006
16339	2.4587e+006
16339	1.8945e+006
16340	5.6775e+006
16340	6.3705e+006
16341	2.2834e+006
16341	3.1658e+006
16342	3.2925e+006
16342	3.1595e+006
16343	3.9877e+006
16343	2.7477e+006
16344	2.3365e+006
16344	2.9419e+006
16345	1.5235e+006
16345	2.3735e+006
16346	3.4902e+006
16346	2.9906e+006
16347	2.3113e+006
16347	2.4365e+006
16348	2.1305e+006
16348	2.5498e+006
16349	1.947e+006
16349	1.893e+006
16350	2.9705e+006
16350	4.0258e+006
16351	1.4618e+006
16351	2.2383e+006
16352	1.6857e+006
16352	2.051e+006
16353	1.0952e+006
16353	1.2441e+006
16354	4.5767e+006
16354	3.7574e+006
16355	3.0098e+006
16355	3.2927e+006
16356	2.0733e+006
16356	1.3736e+006
16357	2.293e+006
16357	2.5388e+006
16358	2.8041e+006
16358	3.2223e+006
16359	2.4294e+006
16359	1.9444e+006
16360	2.4409e+006
16360	1.7662e+006
16361	1.6528e+006
16361	1.6022e+006
16362	4.8268e+006
16362	3.0098e+006
16363	1.687e+006
16363	1.5876e+006
16364	1.5011e+006
16364	1.2038e+006
16365	1.6121e+006
16365	2.0303e+006
16366	1.6163e+006
16366	1.7977e+006
16367	2.2638e+006
16367	1.4102e+006
16368	7.7088e+005
16368	1.0674e+006
16369	2.5237e+006
16369	2.5648e+006
16370	1.6462e+006
16370	2.9385e+006
16371	1.3721e+006
16371	2.7992e+006
16372	1.8464e+006
16372	1.1433e+006
16373	1.4086e+006
16373	1.7996e+006
16374	1.7188e+006
16374	2.3011e+006
16375	2.2441e+006
16375	2.2413e+006
16376	2.8681e+006
16376	4.3929e+006
16377	2.5606e+006
16377	3.8495e+006
16378	3.4372e+006
16378	7.8404e+005
16379	1.7186e+006
16379	2.7001e+006
16380	1.476e+006
16380	1.055e+006
16381	1.1983e+006
16381	2.7859e+006
16382	9.5674e+005
16382	1.7e+006
16383	1.9328e+006
16383	1.3444e+006
16384	1.1091e+006
16384	8.3644e+005
16385	1.0932e+006
16385	1.4125e+006
16386	1.9609e+006
16386	1.1691e+006
16387	7.4181e+005
16387	2.0149e+006
16388	6.8304e+005
16388	5.7844e+005
16389	3.6879e+005
16389	8.4079e+005
16390	8.4799e+005
16390	8.125e+005
16391	6.6263e+005
16391	1.0363e+006
16392	1.3138e+006
16392	1.3359e+006
16393	3.3107e+005
16393	7.7362e+005
16394	1.4242e+006
16394	1.1248e+006
16395	7.8244e+005
16395	3.2279e+005
16396	1.136e+006
16396	1.3468e+006
16397	1.6598e+006
16397	1.5671e+006
16398	1.8272e+006
16398	2.1999e+006
16399	2.0201e+006
16399	1.5065e+006
16400	8.3003e+005
16400	2.5084e+005
16401	1.9809e+006
16401	2.0574e+006
16402	2.9681e+006
16402	2.9787e+006
16403	1.6761e+006
16403	1.5927e+006
16404	3.1739e+006
16404	3.2422e+006
16405	2.7672e+006
16405	2.0557e+006
16406	3.062e+006
16406	4.3254e+006
16407	1.2432e+006
16407	2.3409e+006
16408	1.8621e+006
16408	1.8809e+006
16409	1.5523e+006
16409	2.7618e+006
16410	1.968e+006
16410	1.4468e+006
16411	2.3745e+006
16411	2.4976e+006
16412	1.0303e+006
16412	7.7979e+005
16413	2.1128e+006
16413	4.2447e+006
16414	2.0576e+006
16414	2.0753e+006
16415	2.0047e+006
16415	2.2855e+006
16416	2.8661e+006
16416	3.4316e+006
16417	1.2367e+006
16417	1.7476e+006
16418	1.864e+006
16418	9.215e+005
16419	3.9013e+006
16419	3.0448e+006
16420	3.0561e+006
16420	3.6532e+006
16421	2.713e+006
16421	1.2528e+006
16422	2.6567e+006
16422	2.4373e+006
16423	2.286e+006
16423	1.2539e+006
16424	1.3286e+006
16424	1.704e+006
16425	1.3986e+006
16425	2.7722e+006
16426	2.2471e+006
16426	9.9495e+005
16427	2.1584e+006
16427	1.8855e+006
16428	3.1671e+006
16428	3.3062e+006
16429	1.8898e+006
16429	1.5299e+006
16430	2.547e+006
16430	3.5202e+006
16431	1.3825e+006
16431	1.3237e+006
16432	2.7887e+006
16432	5.5692e+006
16433	1.405e+006
16433	2.9338e+006
16434	3.351e+006
16434	3.6338e+006
16435	1.4429e+006
16435	1.6232e+006
16436	3.5744e+006
16436	2.8337e+006
16437	1.9901e+006
16437	1.9682e+006
16438	1.286e+006
16438	2.174e+006
16439	8.2873e+005
16439	1.0399e+006
16440	2.9927e+005
16440	1.8648e+006
16441	1.3534e+006
16441	1.1817e+006
16442	2.0131e+006
16442	3.0615e+006
16443	1.4338e+006
16443	1.0157e+006
16444	3.9551e+006
16444	4.5366e+006
16445	2.4082e+006
16445	2.3533e+006
16446	4.7754e+006
16446	4.2528e+006
16447	3.1495e+006
16447	3.8432e+006
16448	1.8557e+006
16448	2.4843e+006
16449	2.5601e+006
16449	4.0699e+006
16450	1.388e+006
16450	1.8557e+006
16451	1.36e+006
16451	2.1113e+006
16452	6.6557e+006
16452	7.2156e+006
16453	2.2451e+006
16453	2.2463e+006
16454	1.0062e+006
16454	1.3654e+006
16455	4.8576e+006
16455	5.6844e+006
16456	8.7087e+005
16456	1.7452e+006
16457	8.6717e+005
16457	9.6722e+005
16458	1.5499e+006
16458	1.7881e+006
16459	9.3688e+005
16459	7.0944e+005
16460	1.7525e+006
16460	1.0481e+006
16461	1.164e+006
16461	8.7449e+005
16462	0.
16462	0.
16463	4.5713e+005
16463	5.9996e+005
16464	1.7309e+006
16464	2.1816e+006
16465	0.
16465	0.
16466	0.
16466	0.
16467	0.
16467	0.
16468	0.
16468	0.
16469	0.
16469	0.
16470	0.
16470	0.
16471	0.
16471	0.
16472	0.
16472	0.
16473	0.
16473	0.
16474	0.
16474	0.
16475	0.
16475	0.
16476	0.
16476	0.
16477	0.
16477	0.
16478	0.
16478	0.
16479	0.
16479	0.
16480	0.
16480	0.
16481	0.
16481	0.
16482	0.
16482	0.
16483	0.
16483	0.
16484	0.
16484	0.
16485	0.
16485	0.
16486	0.
16486	0.
16487	0.
16487	0.
16488	0.
16488	0.
16489	0.
16489	0.
16490	0.
16490	0.
16491	0.
16491	0.
16492	0.
16492	0.
16493	0.
16493	0.
16494	0.
16494	0.
16495	0.
16495	0.
16496	0.
16496	0.
16497	0.
16497	0.
16498	0.
16498	0.
16499	20225
16499	15349
16500	0.
16500	0.
16501	0.
16501	0.
16502	0.
16502	0.
16503	31334
16503	26351
16504	16304
16504	16952
16505	0.
16505	0.
16506	0.
16506	0.
16507	0.
16507	0.
16508	9.8749e+005
16508	9.7142e+005
16509	1.0244e+006
16509	7.5699e+005
16510	1.1165e+006
16510	7.2153e+005
16511	5.2361e+005
16511	1.0776e+006
16512	9.2744e+005
16512	1.1287e+006
16513	5.2131e+005
16513	1.6566e+006
16514	3.95e+005
16514	2.8383e+005
16515	4.2494e+005
16515	2.6472e+005
16516	7.2603e+005
16516	2.5889e+005
16517	8.9281e+005
16517	1.0982e+006
16518	1.9151e+006
16518	2.2206e+006
16519	6.9242e+005
16519	9.7634e+005
16520	1.011e+006
16520	1.5297e+006
16521	1.5722e+006
16521	5.5416e+005
16522	5.2477e+005
16522	8.0467e+005
16523	1.0686e+006
16523	3.5768e+005
16524	7.3689e+005
16524	1.0642e+006
16525	1.3955e+006
16525	9.1737e+005
16526	9.0796e+005
16526	1.1447e+006
16527	8.0622e+005
16527	1.341e+006
16528	4.7564e+005
16528	9.5655e+005
16529	9.3184e+005
16529	1.0404e+006
16530	1.2258e+006
16530	8.2592e+005
16531	8.9399e+005
16531	4.2078e+005
16532	1.1709e+006
16532	1.2013e+006
16533	1.8891e+006
16533	1.2178e+006
16534	1.174e+006
16534	1.1101e+006
16535	1.2553e+006
16535	7.9016e+005
16536	1.4827e+006
16536	1.075e+006
16537	8.5907e+005
16537	1.7205e+006
16538	1.2889e+006
16538	7.1246e+005
16539	1.0872e+006
16539	7.2199e+005
16540	1.778e+006
16540	1.7232e+006
16541	1.6951e+006
16541	1.4585e+006
16542	1.7954e+006
16542	1.1774e+006
16543	1.3425e+006
16543	2.8421e+006
16544	1.1388e+006
16544	1.6433e+006
16545	7.7337e+005
16545	1.126e+006
16546	1.1808e+006
16546	1.4256e+006
16547	1.8659e+006
16547	1.8942e+006
16548	1.5489e+006
16548	2.6976e+006
16549	1.5255e+006
16549	1.2597e+006
16550	2.3736e+006
16550	2.7731e+006
16551	2.2486e+006
16551	2.2717e+006
16552	2.0382e+006
16552	1.9057e+006
16553	2.1077e+006
16553	2.5395e+006
16554	1.4239e+006
16554	1.0329e+006
16555	1.1161e+006
16555	9.0686e+005
16556	1.5437e+006
16556	2.0441e+006
16557	5.2507e+005
16557	2.1185e+006
16558	2.75e+006
16558	2.9062e+006
16559	1.9563e+006
16559	3.0856e+006
16560	2.262e+006
16560	1.9656e+006
16561	1.4372e+006
16561	3.7234e+006
16562	2.8996e+006
16562	5.8155e+005
16563	1.7143e+006
16563	1.6484e+006
16564	1.541e+006
16564	2.1673e+006
16565	2.3622e+006
16565	1.4565e+006
16566	3.521e+006
16566	1.6596e+006
16567	1.6857e+006
16567	2.2501e+006
16568	2.1413e+006
16568	2.0309e+006
16569	1.0132e+006
16569	1.9534e+006
16570	9.9921e+005
16570	6.4302e+005
16571	1.3791e+006
16571	2.2516e+006
16572	2.0797e+006
16572	2.2825e+006
16573	1.2985e+006
16573	1.7904e+006
16574	1.3082e+006
16574	1.8179e+006
16575	1.3295e+006
16575	1.4225e+006
16576	2.1558e+006
16576	3.7009e+006
16577	2.1305e+006
16577	4.3218e+006
16578	1.3156e+006
16578	1.1635e+006
16579	1.5751e+006
16579	1.7089e+006
16580	1.2578e+006
16580	2.3621e+006
16581	2.7755e+006
16581	1.6642e+006
16582	3.3164e+006
16582	2.857e+006
16583	2.5386e+006
16583	3.1181e+006
16584	2.6896e+006
16584	2.1653e+006
16585	1.9399e+006
16585	1.1736e+006
16586	1.6406e+006
16586	1.6587e+006
16587	2.2277e+006
16587	2.0409e+006
16588	1.865e+006
16588	1.582e+006
16589	2.1461e+006
16589	2.3913e+006
16590	1.1522e+006
16590	2.4354e+006
16591	2.5256e+006
16591	2.9405e+006
16592	1.7329e+006
16592	4.7586e+005
16593	1.7984e+006
16593	1.421e+006
16594	1.9587e+006
16594	6.3579e+005
16595	9.9757e+005
16595	1.8406e+006
16596	2.3571e+006
16596	3.9607e+006
16597	3.2084e+006
16597	2.7726e+006
16598	3.4323e+006
16598	3.426e+006
16599	2.0108e+006
16599	1.5199e+006
16600	9.3881e+005
16600	6.6035e+005
16601	1.1401e+006
16601	6.5118e+005
16602	1.8018e+006
16602	9.522e+005
16603	3.3117e+006
16603	1.8078e+006
16604	2.4567e+006
16604	3.4685e+006
16605	3.0842e+006
16605	1.8573e+006
16606	3.9214e+006
16606	1.0946e+006
16607	1.1153e+006
16607	1.1958e+006
16608	8.0889e+005
16608	1.53e+006
16609	9.9706e+005
16609	2.2916e+006
16610	1.0374e+006
16610	1.1556e+006
16611	2.3231e+006
16611	8.5282e+005
16612	1.726e+006
16612	1.7671e+006
16613	2.373e+006
16613	5.1165e+005
16614	1.8646e+006
16614	1.7849e+006
16615	1.4697e+006
16615	1.0155e+006
16616	2.2367e+006
16616	3.0126e+006
16617	1.2089e+006
16617	2.0107e+006
16618	1.8707e+006
16618	9.3668e+005
16619	1.3876e+006
16619	8.0131e+005
16620	2.5002e+006
16620	1.2852e+006
16621	2.5894e+006
16621	3.9537e+006
16622	2.2771e+006
16622	3.6553e+006
16623	7.3561e+005
16623	1.169e+006
16624	1.2382e+006
16624	1.7248e+006
16625	7.7138e+005
16625	1.3478e+006
16626	8.9093e+006
16626	4.8294e+006
16627	7.0023e+006
16627	3.6814e+006
16628	6.7767e+006
16628	6.0815e+006
16629	2.6049e+006
16629	1.7842e+006
16630	2.6999e+006
16630	2.8869e+006
16631	2.3697e+006
16631	2.0645e+006
16632	1.3364e+006
16632	1.5666e+006
16633	1.7671e+006
16633	2.8751e+006
16634	3.592e+006
16634	5.4169e+006
16635	2.8074e+006
16635	4.1677e+006
16636	2.4096e+006
16636	2.9569e+006
16637	4.1337e+006
16637	5.298e+006
16638	3.438e+006
16638	2.9521e+006
16639	5.421e+006
16639	4.7333e+006
16640	6.0534e+006
16640	4.2416e+006
16641	2.5787e+006
16641	3.3965e+006
16642	4.6629e+006
16642	4.2846e+006
16643	3.3341e+006
16643	3.1073e+006
16644	2.6725e+006
16644	3.5503e+006
16645	5.1239e+006
16645	6.9449e+006
16646	4.4363e+006
16646	2.7635e+006
16647	3.2436e+006
16647	3.4915e+006
16648	4.7115e+006
16648	3.1589e+006
16649	3.2229e+006
16649	1.6837e+006
16650	3.2173e+006
16650	2.8231e+006
16651	3.4815e+006
16651	3.732e+006
16652	2.9569e+006
16652	2.5858e+006
16653	3.5207e+006
16653	2.5656e+006
16654	3.6665e+006
16654	3.2679e+006
16655	2.9675e+006
16655	3.0832e+006
16656	5.6328e+006
16656	6.2211e+006
16657	3.608e+006
16657	3.4469e+006
16658	1.5893e+006
16658	2.6636e+006
16659	3.5718e+006
16659	6.2952e+006
16660	3.7706e+006
16660	2.5362e+006
16661	4.1875e+006
16661	2.9492e+006
16662	3.3574e+006
16662	1.9959e+006
16663	1.3927e+006
16663	9.8053e+005
16664	5.2039e+006
16664	3.633e+006
16665	2.5668e+006
16665	3.0809e+006
16666	9.9737e+005
16666	1.2493e+006
16667	6.2543e+005
16667	8.3625e+005
16668	2.5182e+006
16668	2.6736e+006
16669	3.0113e+006
16669	4.3457e+006
16670	2.7151e+006
16670	3.7636e+006
16671	2.7976e+006
16671	3.2532e+006
16672	4.3313e+006
16672	4.4709e+006
16673	3.397e+006
16673	2.6436e+006
16674	2.8413e+006
16674	2.2325e+006
16675	1.608e+006
16675	1.0684e+006
16676	1.9489e+006
16676	1.2977e+006
16677	4.005e+006
16677	3.3791e+006
16678	2.2767e+006
16678	3.0953e+006
16679	6.4706e+005
16679	5.4021e+005
16680	3.443e+006
16680	2.7954e+006
16681	4.2159e+006
16681	7.4777e+006
16682	1.6185e+006
16682	5.706e+006
16683	2.7083e+006
16683	2.3961e+006
16684	4.0848e+006
16684	2.5387e+006
16685	4.6129e+006
16685	2.4195e+006
16686	3.6717e+005
16686	7.0338e+005
16687	8.0359e+005
16687	9.1249e+005
16688	9.839e+005
16688	1.2938e+006
16689	1.058e+006
16689	1.6151e+006
16690	3.1285e+006
16690	4.4239e+006
16691	1.3058e+006
16691	2.1121e+006
16692	2.3439e+006
16692	2.7769e+006
16693	2.6532e+006
16693	3.3082e+006
16694	4.2476e+006
16694	3.1805e+006
16695	3.0017e+006
16695	2.0849e+006
16696	1.7823e+006
16696	1.6669e+006
16697	1.6839e+006
16697	1.7488e+006
16698	4.0487e+006
16698	2.2419e+006
16699	1.8795e+006
16699	9.1888e+005
16700	5.2611e+005
16700	1.0037e+006
16701	4.0535e+005
16701	6.7371e+005
16702	89352
16702	4.9015e+005
16703	2.1839e+005
16703	6.7824e+005
16704	4.1636e+006
16704	2.8299e+006
16705	1.7657e+006
16705	4.4065e+005
16706	1.1305e+006
16706	6.8831e+005
16707	1.9506e+006
16707	1.3825e+006
16708	1.7477e+006
16708	1.7936e+006
16709	1.057e+006
16709	1.8275e+006
16710	2.2881e+006
16710	3.2985e+006
16711	2.6447e+006
16711	3.8841e+006
16712	2.715e+006
16712	5.2456e+006
16713	1.1105e+006
16713	9.2822e+005
16714	1.2895e+006
16714	1.8321e+006
16715	3.7107e+006
16715	1.8554e+006
16716	1.1877e+006
16716	5.9654e+005
16717	1.0341e+006
16717	7.5081e+005
16718	9.611e+005
16718	8.1111e+005
16719	7.6472e+005
16719	4.6676e+005
16720	3.5326e+006
16720	3.4723e+006
16721	2.8772e+006
16721	3.4697e+006
16722	1.268e+006
16722	1.7121e+006
16723	1.5171e+006
16723	1.9006e+006
16724	1.0475e+006
16724	1.6032e+006
16725	4.1278e+006
16725	2.5617e+006
16726	7.072e+005
16726	1.3334e+006
16727	8.8644e+005
16727	1.0468e+006
16728	5.8992e+005
16728	8.607e+005
16729	2.9413e+006
16729	2.564e+006
16730	2.6439e+006
16730	2.7229e+006
16731	2.9959e+006
16731	2.0574e+006
16732	1.7699e+006
16732	1.6922e+006
16733	1.8179e+006
16733	1.3789e+006
16734	1.5078e+006
16734	1.2585e+006
16735	2.0073e+006
16735	3.4864e+006
16736	1.5274e+006
16736	1.3164e+006
16737	9.844e+005
16737	1.1695e+006
16738	1.3848e+006
16738	9.2692e+005
16739	2.8925e+006
16739	2.9615e+006
16740	9.1351e+005
16740	1.2125e+006
16741	2.3422e+006
16741	2.4261e+006
16742	2.0435e+006
16742	2.1446e+006
16743	2.6029e+006
16743	1.8312e+006
16744	9.1493e+005
16744	6.4918e+005
16745	1.49e+006
16745	1.0256e+006
16746	8.6199e+005
16746	1.1876e+006
16747	5.4755e+006
16747	6.0262e+006
16748	5.4245e+006
16748	4.4396e+006
16749	4.3641e+006
16749	5.3551e+006
16750	7.118e+006
16750	3.7752e+006
16751	5.2351e+006
16751	3.911e+006
16752	3.9382e+006
16752	4.9544e+006
16753	1.1397e+006
16753	3.2854e+006
16754	2.674e+006
16754	1.723e+006
16755	2.4078e+006
16755	1.1374e+006
16756	3.2955e+006
16756	3.0713e+006
16757	3.1606e+006
16757	2.702e+006
16758	4.8898e+006
16758	5.7845e+006
16759	4.3092e+006
16759	5.4143e+006
16760	3.516e+006
16760	4.352e+006
16761	3.7634e+006
16761	4.4044e+006
16762	3.6008e+006
16762	2.3772e+006
16763	4.3305e+006
16763	4.1468e+006
16764	2.9611e+006
16764	2.0218e+006
16765	4.6709e+006
16765	4.0568e+006
16766	2.7362e+006
16766	2.9649e+006
16767	4.8585e+006
16767	3.7623e+006
16768	3.3605e+006
16768	2.7089e+006
16769	2.3836e+006
16769	2.3058e+006
16770	6.4438e+006
16770	4.4054e+006
16771	2.391e+006
16771	2.9321e+006
16772	4.7042e+006
16772	3.1768e+006
16773	3.9169e+006
16773	2.184e+006
16774	3.9275e+006
16774	4.8053e+006
16775	2.3728e+006
16775	3.9675e+006
16776	3.1212e+006
16776	2.9631e+006
16777	2.5829e+006
16777	2.8571e+006
16778	5.3757e+006
16778	5.0049e+006
16779	3.1606e+006
16779	3.0086e+006
16780	1.8821e+006
16780	1.8417e+006
16781	3.5741e+006
16781	3.1498e+006
16782	1.991e+006
16782	1.4137e+006
16783	4.3573e+006
16783	2.8094e+006
16784	3.6261e+006
16784	1.7719e+006
16785	3.398e+006
16785	3.4877e+006
16786	1.6774e+006
16786	2.3522e+006
16787	1.329e+006
16787	1.7747e+006
16788	1.0563e+006
16788	1.3973e+006
16789	2.8246e+006
16789	3.2171e+006
16790	2.3868e+006
16790	2.5569e+006
16791	3.8625e+006
16791	4.393e+006
16792	1.5217e+006
16792	3.0224e+006
16793	1.4752e+006
16793	2.7896e+006
16794	5.1705e+006
16794	5.6138e+006
16795	2.877e+006
16795	2.7748e+006
16796	9.1787e+005
16796	1.8297e+006
16797	1.9007e+006
16797	7.7102e+005
16798	2.1478e+006
16798	3.4855e+006
16799	6.033e+005
16799	1.036e+006
16800	2.7401e+005
16800	7.6941e+005
16801	7.9854e+005
16801	7.4215e+005
16802	7.3343e+005
16802	4.8578e+005
16803	1.8208e+006
16803	7.7225e+005
16804	2.4374e+006
16804	3.3786e+006
16805	2.3409e+006
16805	3.6058e+006
16806	8.0482e+005
16806	1.5101e+006
16807	8.3827e+005
16807	1.487e+006
16808	9.8459e+005
16808	1.4811e+006
16809	1.2286e+006
16809	1.3847e+006
16810	3.3368e+006
16810	3.5656e+006
16811	7.8295e+005
16811	7.9615e+005
16812	1.2994e+006
16812	2.116e+006
16813	8.3373e+005
16813	1.5349e+006
16814	8.9157e+005
16814	1.2484e+006
16815	2.455e+006
16815	2.3092e+006
16816	1.0503e+006
16816	1.0923e+006
16817	1.0055e+006
16817	8.8073e+005
16818	1.0034e+006
16818	1.0116e+006
16819	1.3026e+006
16819	8.4264e+005
16820	3.3758e+006
16820	2.9819e+006
16821	4.4955e+006
16821	4.3556e+006
16822	1.9532e+006
16822	2.2219e+006
16823	2.549e+006
16823	2.4867e+006
16824	9.6151e+005
16824	1.6622e+006
16825	7.6779e+005
16825	1.3997e+006
16826	5.2786e+005
16826	1.0183e+006
16827	1.4317e+006
16827	1.5972e+006
16828	3.6683e+006
16828	2.3067e+006
16829	3.4383e+006
16829	3.3951e+006
16830	2.264e+006
16830	3.7656e+006
16831	9.4912e+005
16831	1.0984e+006
16832	9.9578e+005
16832	7.0249e+005
16833	1.1145e+006
16833	1.7533e+006
16834	2.7459e+006
16834	1.8512e+006
16835	1.1283e+006
16835	1.5546e+006
16836	6.8685e+005
16836	9.7216e+005
16837	1.1141e+006
16837	8.1123e+005
16838	1.8193e+006
16838	1.2049e+006
16839	2.7929e+006
16839	3.4304e+006
16840	4.0693e+006
16840	5.0572e+006
16841	2.2855e+006
16841	3.1278e+006
16842	1.3662e+006
16842	1.5167e+006
16843	1.981e+006
16843	2.2651e+006
16844	2.9333e+006
16844	2.3038e+006
16845	2.5064e+006
16845	2.4726e+006
16846	1.5573e+006
16846	2.8657e+006
16847	1.6807e+006
16847	1.1539e+006
16848	1.1659e+006
16848	8.9905e+005
16849	1.1844e+006
16849	1.7593e+006
16850	1.8685e+006
16850	1.8009e+006
16851	2.4286e+006
16851	3.901e+006
16852	2.2234e+006
16852	2.1365e+006
16853	2.7158e+006
16853	4.764e+006
16854	2.1775e+006
16854	3.3687e+006
16855	2.1023e+006
16855	1.978e+006
16856	2.4235e+006
16856	2.0578e+006
16857	2.5539e+006
16857	2.5315e+006
16858	1.5188e+006
16858	9.0989e+005
16859	7.9059e+005
16859	8.2411e+005
16860	8.0824e+005
16860	8.5213e+005
16861	1.1316e+006
16861	1.3902e+006
16862	4.5191e+006
16862	1.6909e+006
16863	4.1376e+006
16863	2.3598e+006
16864	5.0786e+006
16864	1.991e+006
16865	3.9383e+006
16865	3.7313e+006
16866	3.3771e+006
16866	1.9048e+006
16867	2.2065e+006
16867	1.3803e+006
16868	3.8297e+006
16868	4.7399e+006
16869	5.7557e+006
16869	3.6147e+006
16870	3.9328e+006
16870	2.2686e+006
16871	3.4703e+006
16871	5.1682e+006
16872	3.9813e+006
16872	3.799e+006
16873	4.7135e+006
16873	4.8743e+006
16874	3.3533e+006
16874	4.4767e+006
16875	4.7451e+006
16875	3.7549e+006
16876	1.5455e+006
16876	2.3759e+006
16877	3.5993e+006
16877	5.0058e+006
16878	2.8718e+006
16878	2.871e+006
16879	2.3523e+006
16879	4.8021e+006
16880	3.3615e+006
16880	2.0691e+006
16881	6.2251e+006
16881	4.0335e+006
16882	2.8328e+006
16882	2.3472e+006
16883	3.279e+006
16883	3.7038e+006
16884	3.587e+006
16884	2.9403e+006
16885	3.542e+006
16885	2.2942e+006
16886	2.6401e+006
16886	3.6716e+006
16887	4.2732e+006
16887	3.0479e+006
16888	3.1881e+006
16888	1.9779e+006
16889	2.7806e+006
16889	1.1544e+006
16890	4.0956e+006
16890	3.0367e+006
16891	4.2097e+006
16891	4.2271e+006
16892	3.8846e+006
16892	1.9515e+006
16893	1.2657e+006
16893	1.481e+006
16894	4.2136e+006
16894	4.1245e+006
16895	4.5149e+006
16895	2.6495e+006
16896	4.6731e+006
16896	3.2991e+006
16897	1.5452e+006
16897	1.9214e+006
16898	9.7697e+005
16898	9.443e+005
16899	2.2667e+006
16899	1.4614e+006
16900	1.707e+006
16900	1.7826e+006
16901	1.5423e+006
16901	1.7672e+006
16902	1.1231e+006
16902	1.2717e+006
16903	2.2721e+006
16903	2.4201e+006
16904	3.3787e+006
16904	4.1652e+006
16905	1.6731e+006
16905	1.6236e+006
16906	1.8272e+006
16906	2.0091e+006
16907	1.6873e+005
16907	1.4599e+005
16908	4.164e+005
16908	1.9506e+005
16909	8.4655e+005
16909	4.6468e+005
16910	2.0774e+005
16910	4.2602e+005
16911	6.7916e+005
16911	9.0178e+005
16912	3.9252e+006
16912	3.6027e+006
16913	3.6473e+006
16913	3.7675e+006
16914	1.2818e+006
16914	1.9499e+006
16915	1.5216e+006
16915	1.5697e+006
16916	2.1779e+006
16916	2.2315e+006
16917	1.2118e+006
16917	2.3728e+005
16918	2.0194e+006
16918	1.4646e+006
16919	1.8948e+006
16919	2.1155e+006
16920	3.2498e+006
16920	2.8608e+006
16921	3.5349e+006
16921	2.3462e+006
16922	3.1662e+006
16922	3.8338e+006
16923	3.7591e+006
16923	4.0674e+006
16924	2.7598e+006
16924	1.6797e+006
16925	2.1496e+006
16925	1.5257e+006
16926	2.3791e+006
16926	1.9215e+006
16927	2.1074e+006
16927	1.1375e+006
16928	1.3849e+006
16928	1.8234e+006
16929	2.4419e+006
16929	2.2617e+006
16930	5.2222e+005
16930	1.0601e+006
16931	2.6833e+006
16931	2.5798e+006
16932	3.1828e+006
16932	4.2532e+006
16933	2.4322e+006
16933	3.3789e+006
16934	1.8243e+006
16934	3.062e+006
16935	5.8249e+005
16935	1.2659e+006
16936	1.8748e+006
16936	2.7118e+006
16937	9.4642e+005
16937	5.839e+005
16938	4.3466e+005
16938	6.7789e+005
16939	1.0038e+006
16939	4.3885e+005
16940	1.0854e+006
16940	1.1283e+006
16941	2.0455e+006
16941	3.0013e+006
16942	4.2124e+006
16942	3.7238e+006
16943	1.3002e+006
16943	1.2851e+006
16944	4.0477e+006
16944	2.9207e+006
16945	4.613e+005
16945	1.8129e+006
16946	1.0132e+006
16946	1.4806e+006
16947	1.593e+006
16947	1.5467e+006
16948	2.4432e+005
16948	5.4184e+005
16949	7.7558e+005
16949	1.1626e+006
16950	4.6781e+005
16950	3.5297e+005
16951	3.6484e+005
16951	4.6719e+005
16952	1.4049e+006
16952	1.0929e+006
16953	4.3425e+005
16953	6.9504e+005
16954	2.9005e+006
16954	3.2356e+006
16955	2.6125e+006
16955	1.9267e+006
16956	4.1716e+006
16956	3.7825e+006
16957	1.2274e+006
16957	1.6453e+006
16958	1.9379e+006
16958	2.9707e+006
16959	2.4681e+006
16959	2.2758e+006
16960	7.3139e+005
16960	1.0569e+006
16961	7.265e+005
16961	1.3794e+006
16962	2.6406e+006
16962	2.8618e+006
16963	3.8042e+005
16963	7.5107e+005
16964	1.2219e+006
16964	1.3993e+006
16965	7.4478e+005
16965	3.0286e+005
16966	2.4567e+005
16966	2.5129e+005
16967	2.9763e+005
16967	1.2222e+005
16968	4.1261e+006
16968	3.756e+006
16969	3.5206e+006
16969	2.7135e+006
16970	2.1233e+006
16970	3.7529e+006
16971	5.0054e+006
16971	4.9113e+006
16972	4.8249e+006
16972	2.7325e+006
16973	4.0548e+006
16973	6.2956e+006
16974	3.6085e+006
16974	2.0818e+006
16975	4.4347e+006
16975	3.2495e+006
16976	2.113e+006
16976	2.8934e+006
16977	7.5192e+006
16977	4.0835e+006
16978	5.3175e+006
16978	3.7454e+006
16979	3.5192e+006
16979	5.4121e+006
16980	3.9667e+006
16980	4.1939e+006
16981	3.0389e+006
16981	4.2488e+006
16982	2.1694e+006
16982	1.9117e+006
16983	3.1805e+006
16983	3.0233e+006
16984	1.859e+006
16984	2.3825e+006
16985	3.6219e+006
16985	4.0113e+006
16986	4.167e+006
16986	5.626e+006
16987	4.0129e+006
16987	4.8938e+006
16988	4.7307e+006
16988	4.8e+006
16989	2.7248e+006
16989	3.3228e+006
16990	3.2379e+006
16990	4.4856e+006
16991	3.8569e+006
16991	2.6263e+006
16992	2.2905e+006
16992	3.3316e+006
16993	2.1226e+006
16993	3.0053e+006
16994	4.2316e+006
16994	2.7149e+006
16995	3.5805e+006
16995	3.5037e+006
16996	3.8188e+006
16996	2.8716e+006
16997	2.6303e+006
16997	4.2355e+006
16998	2.2922e+006
16998	4.0116e+006
16999	3.0787e+006
16999	3.2865e+006
17000	3.4393e+006
17000	2.6859e+006
17001	3.9076e+006
17001	3.6977e+006
17002	3.3094e+006
17002	1.5631e+006
17003	4.1599e+006
17003	3.7948e+006
17004	1.6095e+006
17004	3.1729e+006
17005	3.3761e+006
17005	2.0052e+006
17006	6.6238e+006
17006	1.4671e+006
17007	4.7383e+006
17007	2.4947e+006
17008	3.1738e+006
17008	3.7247e+006
17009	2.8765e+006
17009	1.9675e+006
17010	2.8997e+006
17010	2.5435e+006
17011	3.5029e+006
17011	1.5821e+006
17012	3.2881e+006
17012	5.6451e+005
17013	2.4721e+006
17013	2.8802e+006
17014	1.5088e+006
17014	1.1009e+006
17015	8.9999e+005
17015	3.7017e+005
17016	1.0808e+006
17016	6.4948e+005
17017	2.625e+006
17017	2.6817e+006
17018	9.6478e+005
17018	1.0317e+006
17019	2.283e+006
17019	1.108e+006
17020	1.4405e+006
17020	1.1846e+006
17021	1.0747e+006
17021	1.1012e+006
17022	1.079e+006
17022	1.1533e+006
17023	1.8777e+006
17023	1.4362e+006
17024	1.4399e+006
17024	1.9779e+006
17025	1.5994e+006
17025	1.4544e+006
17026	4.0203e+006
17026	3.5385e+006
17027	2.9604e+006
17027	2.6437e+006
17028	2.112e+006
17028	2.4547e+006
17029	2.3203e+006
17029	3.4088e+006
17030	8.8006e+005
17030	7.1227e+005
17031	9.8289e+005
17031	2.064e+006
17032	1.3301e+006
17032	6.4847e+005
17033	7.1038e+005
17033	5.4233e+005
17034	2.8789e+006
17034	2.3845e+006
17035	7.8838e+005
17035	9.1779e+005
17036	1.287e+006
17036	1.0023e+006
17037	1.407e+006
17037	4.7704e+005
17038	3.1217e+006
17038	1.4895e+006
17039	5.1343e+006
17039	2.5992e+006
17040	2.7988e+006
17040	1.8067e+006
17041	1.689e+006
17041	1.11e+006
17042	1.047e+006
17042	8.3451e+005
17043	9.5571e+005
17043	3.6031e+005
17044	7.1572e+005
17044	1.0385e+006
17045	2.087e+006
17045	2.2333e+006
17046	1.1545e+006
17046	1.3412e+006
17047	7.0498e+005
17047	1.2507e+006
17048	4.9381e+005
17048	1.5019e+006
17049	2.4132e+006
17049	2.8359e+006
17050	1.4482e+006
17050	2.8757e+006
17051	9.4477e+005
17051	1.2869e+006
17052	8.6578e+005
17052	1.0062e+006
17053	4.0355e+005
17053	1.0277e+006
17054	6.0475e+005
17054	1.6574e+006
17055	1.8275e+006
17055	9.148e+005
17056	1.008e+006
17056	4.5137e+005
17057	1.7298e+006
17057	4.1918e+005
17058	1.2265e+006
17058	9.1155e+005
17059	1.6336e+006
17059	1.9034e+006
17060	1.3895e+006
17060	8.3499e+005
17061	6.8338e+005
17061	2.4793e+006
17062	1.1667e+006
17062	1.3534e+006
17063	2.2235e+006
17063	2.3282e+006
17064	2.1065e+006
17064	2.5511e+006
17065	8.0613e+005
17065	1.2805e+006
17066	3.4192e+005
17066	5.7278e+005
17067	3.8789e+005
17067	2.758e+005
17068	2.0861e+005
17068	3.3332e+005
17069	1.7228e+005
17069	5.523e+005
17070	3.9233e+006
17070	4.5771e+006
17071	2.7229e+006
17071	3.7141e+006
17072	2.8547e+006
17072	4.403e+006
17073	4.2185e+006
17073	3.413e+006
17074	3.1361e+006
17074	2.6366e+006
17075	4.5699e+006
17075	5.66e+006
17076	3.8403e+006
17076	5.0519e+006
17077	4.6669e+006
17077	5.2487e+006
17078	2.1256e+006
17078	2.1139e+006
17079	1.3358e+006
17079	2.3268e+006
17080	7.1644e+006
17080	2.2077e+006
17081	4.1936e+006
17081	2.2572e+006
17082	3.219e+006
17082	1.7792e+006
17083	3.4493e+006
17083	4.1877e+006
17084	2.7913e+006
17084	3.8596e+006
17085	2.8613e+006
17085	9.358e+005
17086	2.5202e+006
17086	8.9561e+005
17087	2.1686e+006
17087	9.7533e+005
17088	1.4392e+006
17088	8.3214e+005
17089	2.0579e+006
17089	2.8516e+006
17090	7.9391e+005
17090	2.0983e+006
17091	3.9627e+005
17091	1.8533e+006
17092	2.8168e+006
17092	1.9424e+006
17093	3.5791e+006
17093	4.4502e+006
17094	1.0872e+006
17094	2.2826e+006
17095	1.0212e+006
17095	1.5546e+006
17096	2.0566e+006
17096	2.1132e+006
17097	1.0159e+006
17097	1.0238e+006
17098	5.9567e+006
17098	7.0938e+006
17099	3.785e+006
17099	4.0541e+006
17100	3.7837e+006
17100	4.3981e+006
17101	3.6276e+006
17101	4.8778e+006
17102	2.4924e+006
17102	3.4681e+006
17103	3.7397e+006
17103	2.4277e+006
17104	7.1221e+006
17104	4.2749e+006
17105	3.5017e+006
17105	4.2961e+006
17106	3.2231e+006
17106	3.832e+006
17107	3.8517e+006
17107	4.3693e+006
17108	3.74e+006
17108	4.0069e+006
17109	3.0906e+006
17109	1.966e+006
17110	1.1025e+007
17110	6.1027e+006
17111	1.9875e+006
17111	9.8823e+005
17112	3.0314e+006
17112	1.7952e+006
17113	1.4584e+006
17113	1.3103e+006
17114	2.4919e+006
17114	2.6315e+006
17115	3.4445e+006
17115	4.1887e+006
17116	2.7401e+006
17116	2.603e+006
17117	2.6162e+006
17117	3.5004e+006
17118	1.4248e+006
17118	1.4167e+006
17119	1.3031e+006
17119	1.5633e+006
17120	1.593e+006
17120	1.4378e+006
17121	1.73e+006
17121	1.5724e+006
17122	0.
17122	0.
17123	0.
17123	0.
17124	0.
17124	0.
17125	0.
17125	0.
17126	0.
17126	0.
17127	0.
17127	0.
17128	0.
17128	0.
17129	0.
17129	0.
17130	0.
17130	0.
17131	0.
17131	0.
17132	0.
17132	0.
17133	0.
17133	0.
17134	0.
17134	0.
17135	0.
17135	0.
17136	0.
17136	0.
17137	0.
17137	0.
17138	0.
17138	0.
17139	0.
17139	0.
17140	0.
17140	0.
17141	0.
17141	0.
17142	0.
17142	0.
17143	0.
17143	0.
17144	1.3017e+005
17144	1.5434e+005
17145	1.0375e+006
17145	1.1186e+006
17146	1.1664e+006
17146	1.2544e+006
17147	0.
17147	0.
17148	1.4945e+006
17148	1.7208e+006
17149	9.085e+005
17149	2.1466e+006
17150	1.1415e+006
17150	9.2677e+005
17151	0.
17151	0.
17152	0.
17152	0.
17153	0.
17153	0.
17154	0.
17154	0.
17155	0.
17155	0.
17156	0.
17156	0.
17157	0.
17157	0.
17158	0.
17158	0.
17159	0.
17159	0.
17160	0.
17160	0.
17161	0.
17161	0.
17162	0.
17162	0.
17163	0.
17163	0.
17164	2.1784e+005
17164	3.2875e+005
17165	3.2532e+005
17165	1.3868e+006
17166	0.
17166	0.
17167	0.
17167	0.
17168	9.5368e+005
17168	1.3341e+006
17169	9.5651e+005
17169	8.6456e+005
17170	2.3415e+006
17170	3.2313e+006
17171	0.
17171	0.
17172	0.
17172	0.
17173	5.4994e+005
17173	4.3952e+005
17174	0.
17174	0.
17175	12058
17175	6993.6
17176	0.
17176	0.
17177	0.
17177	0.
17178	0.
17178	0.
17179	0.
17179	0.
17180	0.
17180	0.
17181	0.
17181	0.
17182	0.
17182	0.
17183	0.
17183	0.
17184	0.
17184	0.
17185	0.
17185	0.
17186	0.
17186	0.
17187	0.
17187	0.
17188	0.
17188	0.
17189	0.
17189	0.
17190	0.
17190	0.
17191	0.
17191	0.
17192	48685
17192	18302
17193	0.
17193	0.
17194	59465
17194	2.5294e+005
17195	83523
17195	50743
17196	2.5382e+005
17196	3.183e+005
17197	1.7316e+005
17197	3.4162e+005
17198	51260
17198	43614
17199	59343
17199	33560
17200	6.483e+005
17200	6.1328e+005
17201	31637
17201	21161
17202	1.8638e+005
17202	1.0369e+005
17203	22739
17203	30568
17204	1.1917e+006
17204	1.1274e+006
17205	1.4537e+006
17205	1.3318e+006
17206	1.9605e+005
17206	1.7775e+005
17207	4.1206e+005
17207	1.2952e+005
17208	0.
17208	0.
17209	0.
17209	0.
17210	0.
17210	0.
17211	0.
17211	0.
17212	0.
17212	0.
17213	0.
17213	0.
17214	0.
17214	0.
17215	0.
17215	0.
17216	0.
17216	0.
17217	0.
17217	0.
17218	0.
17218	0.
17219	0.
17219	0.
17220	0.
17220	0.
17221	0.
17221	0.
17222	0.
17222	0.
17223	0.
17223	0.
17224	0.
17224	0.
17225	0.
17225	0.
17226	0.
17226	0.
17227	0.
17227	0.
17228	0.
17228	0.
17229	0.
17229	0.
17230	0.
17230	0.
17231	0.
17231	0.
17232	0.
17232	0.
17233	0.
17233	0.
17234	0.
17234	0.
17235	0.
17235	0.
17236	0.
17236	0.
17237	0.
17237	0.
17238	0.
17238	0.
17239	7.5965e+005
17239	4.9263e+005
17240	5.616e+005
17240	4.2015e+005
17241	6.3526e+005
17241	4.4913e+005
17242	3.9683e+005
17242	6.1166e+005
17243	4.0098e+005
17243	6.2933e+005
17244	4.3486e+005
17244	7.5646e+005
17245	2.1372e+005
17245	2.0162e+005
17246	1.5231e+005
17246	1.4543e+005
17247	1.4567e+005
17247	1.3978e+005
17248	2.6238e+005
17248	2.5623e+005
17249	2.8639e+005
17249	3.6262e+005
17250	3.1015e+005
17250	4.1863e+005
17251	1.3786e+005
17251	2.5442e+005
17252	1.0063e+005
17252	1.602e+005
17253	98374
17253	2.2113e+005
17254	6.1118e+005
17254	7.4134e+005
17255	1.0378e+006
17255	7.8515e+005
17256	1.1768e+006
17256	7.1701e+005
17257	1.9872e+006
17257	1.0217e+006
17258	1.6895e+006
17258	1.6169e+006
17259	6.2539e+005
17259	1.4251e+006
17260	1.4648e+006
17260	1.1867e+006
17261	1.9303e+006
17261	2.5104e+006
17262	2.9718e+006
17262	1.8493e+006
17263	2.3468e+006
17263	2.5758e+005
17264	1.8462e+006
17264	3.1907e+006
17265	2.5466e+006
17265	3.208e+006
17266	2.6941e+006
17266	7.1926e+005
17267	3.3008e+006
17267	2.2412e+006
17268	5.7463e+005
17268	1.3254e+006
17269	9.6114e+005
17269	1.5142e+006
17270	6.1128e+005
17270	1.7732e+006
17271	1.6616e+006
17271	2.4485e+006
17272	2.2364e+006
17272	3.2526e+006
17273	2.7397e+006
17273	2.5806e+006
17274	3.4044e+006
17274	1.6825e+006
17275	2.5917e+006
17275	1.4958e+006
17276	1.3663e+006
17276	1.75e+006
17277	1.5061e+006
17277	1.5689e+006
17278	8.437e+005
17278	8.7103e+005
17279	1.1978e+006
17279	1.4389e+006
17280	9.2887e+005
17280	8.3429e+005
17281	8.6812e+005
17281	1.2762e+006
17282	1.8446e+006
17282	1.6121e+006
17283	5.3903e+005
17283	1.6542e+006
17284	3.1288e+006
17284	1.5079e+006
17285	3.3002e+006
17285	8.7548e+005
17286	2.3171e+006
17286	2.4501e+006
17287	1.4655e+006
17287	2.4655e+006
17288	1.6466e+006
17288	2.6875e+006
17289	1.1705e+006
17289	2.8787e+006
17290	1.2298e+006
17290	9.2627e+005
17291	1.6861e+006
17291	7.7627e+005
17292	9.1833e+005
17292	1.6362e+006
17293	7.724e+005
17293	1.3726e+006
17294	8.6545e+005
17294	6.9732e+005
17295	3.294e+006
17295	3.9474e+006
17296	6.3396e+006
17296	5.5881e+006
17297	4.508e+006
17297	4.9608e+006
17298	4.4166e+006
17298	3.7418e+006
17299	3.6136e+006
17299	2.6568e+006
17300	2.26e+006
17300	5.5773e+006
17301	5.9131e+006
17301	2.7032e+006
17302	4.0241e+006
17302	4.397e+006
17303	2.6392e+006
17303	3.0493e+006
17304	2.4845e+006
17304	3.876e+006
17305	1.649e+006
17305	1.2353e+006
17306	7.2683e+006
17306	7.0154e+006
17307	3.2162e+006
17307	5.8808e+006
17308	5.3242e+006
17308	5.2147e+006
17309	6.759e+006
17309	2.5444e+006
17310	4.0217e+006
17310	4.0209e+006
17311	4.0412e+006
17311	5.9975e+006
17312	3.7036e+006
17312	4.2882e+006
17313	4.2678e+006
17313	7.214e+006
17314	4.1041e+006
17314	4.8574e+006
17315	5.6655e+006
17315	1.1037e+007
17316	4.7052e+006
17316	6.3267e+006
17317	6.9934e+006
17317	4.9413e+006
17318	7.4531e+006
17318	6.9847e+006
17319	5.7005e+006
17319	4.1605e+006
17320	4.7184e+006
17320	4.244e+006
17321	3.0721e+006
17321	1.7824e+006
17322	3.785e+006
17322	2.0952e+006
17323	2.621e+006
17323	2.0423e+006
17324	86341
17324	1.8478e+005
17325	84794
17325	1.9264e+005
17326	1.173e+005
17326	2.5319e+005
17327	2.9581e+006
17327	6.2511e+006
17328	2.3751e+006
17328	4.4607e+006
17329	2.0527e+006
17329	2.6253e+006
17330	3.752e+006
17330	1.1928e+006
17331	4.1006e+006
17331	2.1232e+006
17332	5.8338e+006
17332	2.3391e+006
17333	4.1801e+006
17333	2.2477e+006
17334	1.7425e+006
17334	1.5588e+006
17335	1.6337e+006
17335	1.3029e+006
17336	9.1365e+005
17336	1.6547e+006
17337	2.4012e+006
17337	2.5284e+006
17338	2.1728e+006
17338	2.4631e+006
17339	1.8058e+005
17339	4.1673e+005
17340	1.5823e+006
17340	2.2592e+006
17341	2.0655e+006
17341	1.6812e+006
17342	1.4594e+006
17342	2.2342e+006
17343	2.0244e+006
17343	1.1101e+006
17344	7.7392e+005
17344	7.1118e+005
17345	3.8011e+006
17345	2.1731e+006
17346	8.6194e+005
17346	1.1609e+006
17347	9.6575e+005
17347	6.7497e+005
17348	2.28e+006
17348	2.0156e+006
17349	3.8481e+005
17349	4.7758e+005
17350	2.0031e+006
17350	2.6535e+006
17351	7.5009e+005
17351	1.1179e+006
17352	9.8997e+005
17352	7.9368e+005
17353	1.2427e+005
17353	1.3844e+005
17354	28414
17354	1.0739e+005
17355	3.4287e+006
17355	3.1496e+006
17356	5.7272e+006
17356	4.9535e+006
17357	5.3368e+006
17357	4.665e+006
17358	1.4095e+006
17358	3.9405e+006
17359	3.2682e+006
17359	5.0456e+006
17360	4.6032e+006
17360	2.653e+006
17361	2.7964e+006
17361	7.4079e+005
17362	8.9931e+005
17362	1.7111e+006
17363	2.5367e+006
17363	2.3706e+006
17364	2.1706e+006
17364	2.5764e+006
17365	1.2063e+006
17365	1.2497e+006
17366	1.8294e+006
17366	1.2769e+006
17367	2.3534e+006
17367	2.2499e+006
17368	1.4054e+006
17368	1.2288e+006
17369	48659
17369	2.2739e+005
17370	6.0486e+006
17370	4.7129e+006
17371	6.777e+006
17371	9.4288e+006
17372	3.2356e+006
17372	3.823e+006
17373	4.0769e+006
17373	4.6728e+006
17374	4.0657e+006
17374	3.2032e+006
17375	4.0068e+006
17375	3.6676e+006
17376	6.7202e+006
17376	3.6477e+006
17377	4.8114e+006
17377	4.4721e+006
17378	5.5092e+006
17378	3.3401e+006
17379	2.9e+006
17379	2.7483e+006
17380	7.0623e+006
17380	4.7077e+006
17381	5.7845e+006
17381	2.389e+006
17382	5.4718e+006
17382	4.5097e+006
17383	5.0491e+006
17383	6.7905e+006
17384	4.419e+006
17384	3.5418e+006
17385	3.9553e+006
17385	2.8204e+006
17386	4.2839e+006
17386	1.9502e+006
17387	1.4136e+006
17387	5.6906e+006
17388	96214
17388	2.4888e+005
17389	1.415e+005
17389	3.8332e+005
17390	1.6547e+005
17390	2.4159e+005
17391	5.0593e+006
17391	3.1797e+006
17392	2.9438e+006
17392	1.766e+006
17393	1.0415e+006
17393	1.3067e+006
17394	5.9039e+005
17394	2.8234e+006
17395	2.983e+006
17395	2.3731e+006
17396	8.7708e+005
17396	1.5305e+006
17397	3.1834e+006
17397	2.1743e+006
17398	3.3096e+006
17398	2.2426e+006
17399	1.1876e+006
17399	1.7407e+006
17400	9.2424e+005
17400	9.0782e+005
17401	3.5525e+005
17401	4.2261e+005
17402	3.1844e+005
17402	9.2791e+005
17403	1.1585e+006
17403	1.8361e+006
17404	1.012e+006
17404	9.1465e+005
17405	9.6939e+005
17405	1.6793e+006
17406	1.6044e+006
17406	1.9855e+006
17407	7.1481e+005
17407	1.3491e+006
17408	8.5171e+005
17408	1.7081e+006
17409	8.027e+005
17409	1.1958e+006
17410	2.4347e+006
17410	7.913e+005
17411	1.7443e+006
17411	1.4473e+006
17412	7.3609e+005
17412	7.8827e+005
17413	4.2476e+005
17413	3.8022e+005
17414	2.4217e+005
17414	2.6982e+005
17415	5.7743e+005
17415	2.175e+006
17416	2.6348e+006
17416	3.7524e+006
17417	3.9311e+006
17417	4.4369e+006
17418	1.7449e+006
17418	6.9617e+005
17419	1.7977e+006
17419	1.6599e+006
17420	3.1834e+006
17420	2.117e+006
17421	2.4308e+006
17421	1.4894e+006
17422	2.2454e+006
17422	1.786e+006
17423	1.9479e+006
17423	1.7799e+006
17424	3.3044e+006
17424	2.5272e+006
17425	6.4878e+006
17425	2.3866e+006
17426	3.3171e+006
17426	2.5093e+006
17427	1.3236e+006
17427	3.1993e+006
17428	2.3843e+006
17428	3.5365e+006
17429	1.7453e+006
17429	3.8276e+006
17430	1.7983e+006
17430	1.1908e+006
17431	2.2628e+005
17431	2.1553e+005
17432	5.4209e+006
17432	1.0044e+007
17433	4.9629e+006
17433	4.3653e+006
17434	7.4257e+006
17434	6.2512e+006
17435	7.0642e+006
17435	3.0906e+006
17436	5.6412e+006
17436	3.6207e+006
17437	4.1574e+006
17437	4.1211e+006
17438	2.1175e+006
17438	5.7201e+006
17439	4.8581e+006
17439	4.6138e+006
17440	2.2146e+006
17440	3.0698e+006
17441	3.848e+006
17441	4.4653e+006
17442	3.7262e+006
17442	2.1871e+006
17443	3.5026e+006
17443	5.9407e+006
17444	6.1619e+006
17444	3.9503e+006
17445	5.4914e+006
17445	3.9261e+006
17446	3.7738e+006
17446	2.1743e+006
17447	5.3386e+006
17447	4.6368e+006
17448	3.5954e+006
17448	3.3327e+006
17449	2.7729e+006
17449	3.9497e+006
17450	63557
17450	73288
17451	71401
17451	61366
17452	80027
17452	75378
17453	8.052e+005
17453	1.9481e+006
17454	4.5471e+006
17454	9.2317e+005
17455	5.33e+006
17455	1.8741e+006
17456	4.3747e+006
17456	4.0514e+006
17457	2.4584e+006
17457	1.3672e+006
17458	8.8093e+005
17458	1.5538e+006
17459	2.4602e+006
17459	1.5964e+006
17460	1.7011e+006
17460	3.4567e+006
17461	2.363e+006
17461	9.5403e+005
17462	1.9137e+006
17462	2.8093e+006
17463	1.9185e+006
17463	2.6606e+006
17464	3.2099e+006
17464	3.7963e+006
17465	1.0929e+006
17465	1.8294e+006
17466	1.8958e+005
17466	3.9136e+005
17467	1.1218e+006
17467	7.2646e+005
17468	3.7993e+005
17468	1.8648e+005
17469	8.8845e+005
17469	6.6872e+005
17470	1.0214e+006
17470	2.2303e+005
17471	2.1354e+006
17471	2.0896e+006
17472	8.4271e+005
17472	1.3489e+006
17473	7.6385e+005
17473	2.6019e+005
17474	7.3459e+005
17474	4.0068e+005
17475	2.6202e+006
17475	9.9969e+005
17476	1.8597e+006
17476	1.2374e+006
17477	1.8896e+006
17477	1.3632e+006
17478	6.0675e+005
17478	9.8765e+005
17479	1.4508e+005
17479	1.2669e+005
17480	58266
17480	1.0914e+005
17481	60227
17481	69191
17482	1.3019e+006
17482	6.2216e+005
17483	1.0946e+006
17483	1.2048e+006
17484	2.047e+006
17484	3.4283e+006
17485	3.3614e+006
17485	5.5682e+006
17486	2.4441e+006
17486	1.564e+006
17487	3.4185e+006
17487	2.9177e+006
17488	1.178e+006
17488	2.0176e+006
17489	1.4606e+006
17489	3.4918e+006
17490	2.672e+006
17490	3.0901e+006
17491	2.1082e+006
17491	1.7457e+006
17492	5.988e+005
17492	1.2475e+006
17493	42635
17493	74736
17494	5.755e+006
17494	4.163e+006
17495	4.6658e+006
17495	3.3036e+006
17496	5.6701e+006
17496	3.4274e+006
17497	4.8644e+006
17497	8.3881e+006
17498	2.6263e+006
17498	3.9769e+006
17499	4.805e+006
17499	3.58e+006
17500	3.5951e+006
17500	4.8745e+006
17501	5.5746e+006
17501	5.0668e+006
17502	4.913e+006
17502	3.8898e+006
17503	3.652e+006
17503	1.5233e+006
17504	3.9833e+006
17504	5.7834e+006
17505	1.4407e+006
17505	5.0196e+006
17506	4.425e+006
17506	5.7225e+006
17507	3.1733e+006
17507	4.1775e+006
17508	4.0973e+006
17508	3.5688e+006
17509	3.692e+006
17509	2.3204e+006
17510	2.3289e+006
17510	4.9562e+006
17511	2.2601e+006
17511	7.9418e+006
17512	4.308e+006
17512	3.1673e+006
17513	4.7437e+006
17513	2.4649e+006
17514	1.5407e+005
17514	2.2842e+005
17515	1.2004e+005
17515	1.327e+005
17516	44549
17516	1.6573e+005
17517	2.1114e+006
17517	6.495e+005
17518	2.5657e+006
17518	6.4846e+005
17519	1.1082e+006
17519	2.7521e+006
17520	1.3727e+006
17520	4.8566e+005
17521	8.8219e+005
17521	3.829e+006
17522	2.2114e+006
17522	3.1946e+006
17523	1.7773e+006
17523	6.7002e+005
17524	2.8923e+006
17524	3.3804e+006
17525	2.2355e+006
17525	3.22e+006
17526	4.1376e+006
17526	2.5245e+006
17527	6.2272e+005
17527	6.7481e+005
17528	1.1841e+006
17528	1.1684e+006
17529	6.78e+005
17529	8.4443e+005
17530	1.606e+006
17530	8.2396e+005
17531	1.8637e+006
17531	7.9333e+005
17532	1.4235e+006
17532	7.8486e+005
17533	1.6987e+006
17533	6.132e+005
17534	1.1245e+006
17534	1.3372e+006
17535	1.7575e+006
17535	1.4765e+006
17536	1.395e+006
17536	1.3263e+006
17537	3.0914e+006
17537	2.7116e+006
17538	2.1522e+006
17538	2.2994e+006
17539	47603
17539	3.4626e+005
17540	67541
17540	1.8745e+005
17541	51222
17541	1.7171e+005
17542	1.6664e+006
17542	1.6215e+006
17543	2.5588e+006
17543	4.4457e+006
17544	2.5848e+006
17544	2.4866e+006
17545	8.5889e+005
17545	1.0727e+006
17546	7.7431e+005
17546	4.7928e+005
17547	2.1105e+006
17547	1.7669e+006
17548	4.0368e+006
17548	4.0395e+006
17549	1.5236e+006
17549	1.3217e+006
17550	1.4854e+006
17550	8.7422e+005
17551	3.3566e+006
17551	2.8079e+006
17552	3.8612e+006
17552	3.4628e+006
17553	1.8356e+006
17553	1.032e+006
17554	1.0169e+006
17554	1.1279e+006
17555	2.6276e+006
17555	1.2527e+006
17556	9.3189e+005
17556	1.1018e+006
17557	7.4956e+005
17557	2.7412e+006
17558	1.749e+006
17558	4.3124e+006
17559	52107
17559	1.2815e+005
17560	3.7876e+006
17560	6.0551e+006
17561	5.7798e+006
17561	6.5206e+006
17562	4.389e+006
17562	3.7424e+006
17563	1.7889e+006
17563	3.2354e+006
17564	3.9581e+006
17564	4.0575e+006
17565	4.4154e+006
17565	5.7031e+006
17566	8.1542e+006
17566	5.8113e+006
17567	4.618e+006
17567	4.8496e+006
17568	5.113e+006
17568	3.9895e+006
17569	4.253e+006
17569	3.6347e+006
17570	4.5098e+006
17570	1.8779e+006
17571	0.
17571	0.
17572	6.2875e+006
17572	4.9764e+006
17573	3.5369e+006
17573	5.209e+006
17574	7.1781e+006
17574	5.5709e+006
17575	2.7843e+006
17575	3.3878e+006
17576	3.7034e+006
17576	3.5939e+006
17577	4.6e+006
17577	5.7142e+006
17578	0.
17578	0.
17579	0.
17579	0.
17580	2.7904e+006
17580	4.509e+006
17581	0.
17581	0.
17582	0.
17582	0.
17583	2.9714e+006
17583	5.3482e+006
17584	2.1576e+006
17584	2.5807e+006
17585	3.3868e+006
17585	2.9651e+006
17586	3.022e+006
17586	2.6027e+006
17587	0.
17587	0.
17588	0.
17588	0.
17589	0.
17589	0.
17590	0.
17590	0.
17591	0.
17591	0.
17592	0.
17592	0.
17593	0.
17593	0.
17594	0.
17594	0.
17595	0.
17595	0.
17596	0.
17596	0.
17597	0.
17597	0.
17598	0.
17598	0.
17599	0.
17599	0.
17600	0.
17600	0.
17601	0.
17601	0.
17602	0.
17602	0.
17603	0.
17603	0.
17604	0.
17604	0.
17605	0.
17605	0.
17606	0.
17606	0.
17607	0.
17607	0.
17608	0.
17608	0.
17609	0.
17609	0.
17610	0.
17610	0.
17611	0.
17611	0.
17612	0.
17612	0.
17613	0.
17613	0.
17614	18356
17614	11048
17615	34224
17615	25316
17616	0.
17616	0.
17617	0.
17617	0.
17618	0.
17618	0.
17619	0.
17619	0.
17620	0.
17620	0.
17621	0.
17621	0.
17622	0.
17622	0.
17623	0.
17623	0.
17624	0.
17624	0.
17625	0.
17625	0.
17626	0.
17626	0.
17627	0.
17627	0.
17628	0.
17628	0.
17629	0.
17629	0.
17630	0.
17630	0.
17631	0.
17631	0.
17632	0.
17632	0.
17633	0.
17633	0.
17634	0.
17634	0.
17635	0.
17635	0.
17636	0.
17636	0.
17637	0.
17637	0.
17638	0.
17638	0.
17639	0.
17639	0.
17640	0.
17640	0.
17641	0.
17641	0.
17642	0.
17642	0.
17643	1.3631e+006
17643	1.4668e+006
17644	5.0839e+006
17644	2.04e+006
17645	0.
17645	0.
17646	0.
17646	0.
17647	1.172e+006
17647	7.5903e+005
17648	7.5955e+005
17648	1.908e+005
17649	3.2313e+006
17649	1.3427e+006
17650	0.
17650	0.
17651	0.
17651	0.
17652	0.
17652	0.
17653	0.
17653	0.
17654	2.5609e+006
17654	2.236e+006
17655	1.405e+006
17655	4.7542e+005
17656	2.7146e+006
17656	2.5197e+006
17657	2.8257e+006
17657	7.848e+005
17658	1.9139e+006
17658	8.5725e+005
17659	9.7097e+005
17659	8.0799e+005
17660	1.7294e+006
17660	8.3322e+005
17661	1.2152e+006
17661	1.0677e+006
17662	1.2701e+006
17662	6.2582e+005
17663	8.18e+005
17663	1.1167e+006
17664	1.5175e+006
17664	1.3549e+006
17665	1.1912e+006
17665	8.0957e+005
17666	0.
17666	0.
17667	0.
17667	0.
17668	7.1758e+005
17668	2.3631e+006
17669	1.175e+006
17669	1.8583e+006
17670	1.0464e+006
17670	1.3798e+006
17671	0.
17671	0.
17672	0.
17672	0.
17673	6.2859e+005
17673	2.9272e+005
17674	1.2009e+006
17674	3.4077e+006
17675	1.2881e+006
17675	2.9155e+006
17676	2.9761e+006
17676	2.4395e+006
17677	3.4911e+006
17677	3.547e+006
17678	2.0218e+006
17678	4.7846e+006
17679	3.6517e+006
17679	3.6192e+006
17680	1.1104e+006
17680	2.192e+006
17681	0.
17681	0.
17682	0.
17682	0.
17683	6.9879e+005
17683	1.7797e+006
17684	2.6182e+006
17684	3.4836e+006
17685	1.0639e+006
17685	2.2086e+006
17686	0.
17686	0.
17687	7.5882e+005
17687	2.1149e+006
17688	0.
17688	0.
17689	5.0506e+006
17689	6.1836e+006
17690	6.6023e+005
17690	1.3816e+006
17691	1.0253e+006
17691	2.034e+006
17692	7.3346e+005
17692	9.2776e+005
17693	5.1933e+006
17693	4.1264e+006
17694	0.
17694	0.
17695	5.5128e+005
17695	7.3323e+005
17696	8.5782e+005
17696	1.1076e+006
17697	1.145e+006
17697	1.0455e+006
17698	1.2425e+006
17698	1.4172e+006
17699	1.1516e+006
17699	2.3027e+006
17700	3.2559e+006
17700	4.5163e+006
17701	3.1486e+006
17701	6.2337e+006
17702	1.0774e+006
17702	1.9144e+006
17703	5.9462e+005
17703	1.4052e+006
17704	5.7272e+006
17704	6.8457e+006
17705	0.
17705	0.
17706	1.0765e+006
17706	2.4523e+006
17707	3.0997e+006
17707	1.7095e+006
17708	1.2319e+006
17708	8.2072e+005
17709	0.
17709	0.
17710	1.1913e+006
17710	1.4919e+006
17711	3.8581e+006
17711	4.1948e+006
17712	1.2237e+006
17712	1.6201e+006
17713	0.
17713	0.
17714	2.1758e+006
17714	5.6595e+006
17715	5.6172e+005
17715	2.2987e+006
17716	0.
17716	0.
17717	3.8001e+006
17717	4.547e+006
17718	4.0541e+006
17718	6.3526e+006
17719	1.5546e+006
17719	1.2567e+006
17720	1.6145e+006
17720	6.2634e+005
17721	1.433e+006
17721	1.1745e+006
17722	1.558e+006
17722	7.8872e+005
17723	2.8606e+006
17723	2.9287e+006
17724	6.0015e+006
17724	3.1154e+006
17725	5.2339e+005
17725	1.0326e+006
17726	1.0922e+006
17726	1.6854e+006
17727	4.9961e+005
17727	2.2526e+006
17728	0.
17728	0.
17729	8.9811e+005
17729	2.7382e+006
17730	4.1912e+006
17730	2.9222e+006
17731	5.6774e+005
17731	6.9708e+005
17732	3.551e+006
17732	4.2055e+006
17733	3.0959e+005
17733	6.4713e+005
17734	1.2144e+006
17734	2.5981e+006
17735	7.9987e+005
17735	1.8915e+006
17736	8.3461e+005
17736	1.5333e+006
17737	5.0045e+006
17737	4.2516e+006
17738	3.9359e+006
17738	5.0257e+006
17739	9.7954e+005
17739	1.4578e+006
17740	0.
17740	0.
17741	2.8522e+005
17741	7.4236e+005
17742	1.5847e+006
17742	1.5926e+006
17743	0.
17743	0.
17744	4.1422e+005
17744	1.5141e+006
17745	0.
17745	0.
17746	0.
17746	0.
17747	9.5004e+005
17747	1.2234e+006
17748	1.2639e+006
17748	9.5225e+005
17749	2.382e+006
17749	3.7616e+006
17750	0.
17750	0.
17751	5.8701e+006
17751	2.6446e+006
17752	1.1868e+006
17752	6.5299e+005
17753	2.0028e+005
17753	2.2123e+005
17754	0.
17754	0.
17755	2.2746e+005
17755	4.3694e+005
17756	0.
17756	0.
17757	2.8955e+005
17757	2.8623e+005
17758	2.3123e+005
17758	1.3175e+005
17759	3.322e+005
17759	5.5497e+005
17760	0.
17760	0.
17761	2.6731e+005
17761	2.7326e+005
17762	2.46e+005
17762	1.155e+005
17763	0.
17763	0.
17764	3.6711e+005
17764	2.024e+005
17765	5.5185e+006
17765	2.1315e+006
17766	0.
17766	0.
17767	0.
17767	0.
17768	5.6454e+006
17768	5.1008e+006
17769	0.
17769	0.
17770	2.823e+006
17770	1.7949e+006
17771	0.
17771	0.
17772	1.3888e+006
17772	1.7721e+006
17773	2.7955e+006
17773	2.687e+006
17774	7.2024e+006
17774	4.0217e+006
17775	2.125e+006
17775	9.4846e+005
17776	0.
17776	0.
17777	2.4629e+006
17777	1.5503e+006
17778	0.
17778	0.
17779	7.0117e+005
17779	6.7702e+005
17780	0.
17780	0.
17781	2.8145e+006
17781	4.6254e+006
17782	3.9837e+006
17782	5.8439e+006
17783	5.1098e+005
17783	6.8778e+005
17784	5.6543e+005
17784	2.1443e+006
17785	1.6742e+006
17785	6.4098e+006
17786	1.2491e+006
17786	1.102e+006
17787	4.5343e+005
17787	7.6547e+005
17788	1.5091e+006
17788	4.841e+005
17789	0.
17789	0.
17790	1.5211e+005
17790	4.664e+005
17791	3.3662e+005
17791	1.9705e+005
17792	0.
17792	0.
17793	0.
17793	0.
17794	7.5878e+005
17794	4.095e+005
17795	3.9839e+005
17795	2.0744e+006
17796	3.5462e+005
17796	1.589e+006
17797	0.
17797	0.
17798	0.
17798	0.
17799	93655
17799	5.2396e+005
17800	0.
17800	0.
17801	7.517e+005
17801	4.6986e+005
17802	9.8136e+005
17802	3.4183e+006
17803	3.0192e+006
17803	6.6363e+006
17804	2.5281e+006
17804	3.6728e+005
17805	0.
17805	0.
17806	0.
17806	0.
17807	2.3536e+006
17807	2.2336e+006
17808	7.6626e+006
17808	4.9427e+006
17809	2.4026e+006
17809	3.5262e+006
17810	2.6465e+006
17810	1.6198e+006
17811	0.
17811	0.
17812	0.
17812	0.
17813	7.0828e+005
17813	6.7541e+005
17814	2.631e+006
17814	8.9829e+005
17815	1.8498e+006
17815	1.4608e+006
17816	1.0055e+007
17816	2.5608e+006
17817	0.
17817	0.
17818	9.7605e+005
17818	1.7915e+006
17819	2.8897e+006
17819	3.807e+006
17820	2.7193e+006
17820	4.4058e+006
17821	0.
17821	0.
17822	1.3728e+006
17822	1.2522e+006
17823	0.
17823	0.
17824	1.5309e+006
17824	3.9261e+005
17825	2.3152e+006
17825	1.119e+006
17826	0.
17826	0.
17827	0.
17827	0.
17828	0.
17828	0.
17829	0.
17829	0.
17830	3.4788e+006
17830	1.1239e+006
17831	1.7419e+006
17831	1.4005e+006
17832	2.6971e+006
17832	1.4585e+006
17833	5.6605e+006
17833	3.6853e+006
17834	2.1069e+006
17834	1.8893e+006
17835	1.8188e+006
17835	3.8574e+005
17836	8.4877e+005
17836	5.5579e+005
17837	1.5327e+006
17837	8.8687e+005
17838	0.
17838	0.
17839	0.
17839	0.
17840	2.741e+005
17840	5.1696e+005
17841	0.
17841	0.
17842	0.
17842	0.
17843	4.0601e+005
17843	3.3354e+005
17844	1.3534e+005
17844	6.1219e+005
17845	3.6984e+005
17845	2.432e+006
17846	0.
17846	0.
17847	4.0776e+005
17847	1.8474e+006
17848	0.
17848	0.
17849	9.7847e+005
17849	4.2031e+005
17850	0.
17850	0.
17851	0.
17851	0.
17852	7.4234e+005
17852	7.2123e+005
17853	3.4374e+006
17853	1.416e+006
17854	0.
17854	0.
17855	6.0478e+005
17855	2.0954e+006
17856	2.2605e+006
17856	1.438e+006
17857	0.
17857	0.
17858	2.3295e+006
17858	1.8395e+006
17859	0.
17859	0.
17860	3.3384e+006
17860	1.9352e+006
17861	7.2953e+005
17861	1.9588e+006
17862	3.4535e+006
17862	2.8549e+006
17863	2.3694e+006
17863	2.9903e+006
17864	0.
17864	0.
17865	2.8009e+006
17865	5.1185e+006
17866	7.3734e+005
17866	1.7212e+006
17867	0.
17867	0.
17868	1.6138e+006
17868	2.7725e+006
17869	0.
17869	0.
17870	2.4574e+006
17870	1.5618e+006
17871	7.2418e+005
17871	3.5291e+006
17872	1.6571e+006
17872	3.6553e+006
17873	0.
17873	0.
17874	5.8142e+005
17874	1.9706e+006
17875	0.
17875	0.
17876	1.5567e+006
17876	4.4177e+006
17877	3.7618e+006
17877	6.3384e+006
17878	0.
17878	0.
17879	5.8843e+005
17879	5.6022e+005
17880	4.0954e+006
17880	2.8808e+006
17881	1.4623e+006
17881	2.3778e+006
17882	3.8009e+006
17882	3.1693e+006
17883	4.7563e+006
17883	4.7381e+006
17884	6.4694e+005
17884	5.5479e+005
17885	0.
17885	0.
17886	4.5185e+006
17886	4.9657e+006
17887	1.6815e+006
17887	2.4791e+006
17888	8.2145e+005
17888	8.3804e+005
17889	4.1048e+006
17889	3.496e+006
17890	4.0416e+005
17890	1.0332e+006
17891	4.7809e+006
17891	6.1209e+006
17892	0.
17892	0.
17893	2.7737e+006
17893	1.9377e+006
17894	1.8119e+006
17894	1.2271e+006
17895	5.3505e+005
17895	4.5466e+005
17896	5.1745e+006
17896	2.4428e+006
17897	8.7914e+006
17897	4.9745e+006
17898	1.3648e+006
17898	1.1513e+006
17899	1.1639e+006
17899	7.2433e+005
17900	2.6263e+006
17900	1.4694e+006
17901	6.2195e+006
17901	3.515e+006
17902	5.2107e+006
17902	4.02e+006
17903	0.
17903	0.
17904	9.7522e+005
17904	4.2289e+005
17905	9.0282e+005
17905	5.181e+005
17906	2.3588e+006
17906	1.2173e+006
17907	4.5094e+006
17907	5.0881e+006
17908	4.9312e+006
17908	4.6307e+006
17909	1.0532e+006
17909	7.4973e+005
17910	8.5245e+005
17910	1.2084e+006
17911	0.
17911	0.
17912	6.8229e+005
17912	3.2258e+005
17913	1.9489e+006
17913	2.0729e+006
17914	2.0164e+006
17914	3.6263e+006
17915	4.4627e+006
17915	4.3731e+006
17916	0.
17916	0.
17917	4.2148e+006
17917	6.1287e+006
17918	3.5661e+006
17918	3.3261e+006
17919	1.13e+007
17919	3.5193e+006
17920	3.2477e+006
17920	3.9096e+006
17921	1.7601e+006
17921	2.024e+006
17922	2.7701e+006
17922	9.2552e+005
17923	0.
17923	0.
17924	8.6243e+005
17924	1.378e+006
17925	1.8811e+006
17925	1.8432e+006
17926	6.6519e+006
17926	6.9912e+006
17927	1.6182e+006
17927	3.6171e+006
17928	7.0849e+006
17928	8.5689e+006
17929	3.9907e+006
17929	4.1737e+006
17930	2.7012e+006
17930	1.751e+006
17931	1.4091e+006
17931	5.4008e+005
17932	5.0565e+005
17932	1.8001e+006
17933	1.8747e+006
17933	1.4449e+006
17934	1.6302e+006
17934	9.1496e+005
17935	0.
17935	0.
17936	7.8573e+006
17936	4.2095e+006
17937	3.2928e+006
17937	3.0925e+006
17938	2.6347e+006
17938	2.2144e+006
17939	1.8329e+006
17939	2.4111e+006
17940	1.724e+006
17940	1.8071e+006
17941	1.6345e+006
17941	1.2925e+006
17942	1.9037e+006
17942	2.8144e+006
17943	7.196e+006
17943	6.1515e+006
17944	7.281e+006
17944	6.9455e+006
17945	2.2078e+006
17945	2.0316e+006
17946	5.481e+006
17946	7.2384e+006
17947	4.4603e+006
17947	4.2032e+006
17948	3.2695e+006
17948	3.9487e+006
17949	0.
17949	0.
17950	0.
17950	0.
17951	1.575e+006
17951	1.0431e+006
17952	7.2159e+005
17952	3.4029e+005
17953	0.
17953	0.
17954	4.9581e+005
17954	9.8401e+005
17955	1.2422e+006
17955	7.7636e+005
17956	0.
17956	0.
17957	5.7776e+006
17957	2.2318e+006
17958	2.0664e+006
17958	1.396e+006
17959	1.2943e+006
17959	1.3382e+006
17960	0.
17960	0.
17961	5.059e+006
17961	3.0894e+006
17962	0.
17962	0.
17963	2.4642e+006
17963	3.4269e+006
17964	1.5605e+006
17964	4.9453e+005
17965	0.
17965	0.
17966	1.996e+006
17966	1.2713e+006
17967	9.3745e+005
17967	4.0378e+005
17968	0.
17968	0.
17969	5.7178e+006
17969	5.3686e+006
17970	0.
17970	0.
17971	2.2527e+006
17971	3.5923e+005
17972	5.7791e+006
17972	4.8236e+006
17973	4.8806e+006
17973	3.9953e+006
17974	0.
17974	0.
17975	2.0025e+006
17975	1.8981e+006
17976	1.2838e+006
17976	1.279e+006
17977	1.451e+006
17977	1.1484e+006
17978	4.509e+006
17978	5.0826e+006
17979	2.181e+006
17979	1.3591e+006
17980	4.6524e+005
17980	7.1768e+005
17981	4.078e+005
17981	6.4706e+005
17982	2.5447e+006
17982	6.2511e+005
17983	0.
17983	0.
17984	0.
17984	0.
17985	1.7338e+006
17985	8.8541e+005
17986	2.6968e+006
17986	8.9492e+005
17987	0.
17987	0.
17988	0.
17988	0.
17989	0.
17989	0.
17990	0.
17990	0.
17991	1.6877e+006
17991	1.1221e+006
17992	0.
17992	0.
17993	1.1266e+006
17993	1.2799e+006
17994	0.
17994	0.
17995	1.4028e+006
17995	9.3681e+005
17996	1.0303e+006
17996	1.5312e+006
17997	7.9579e+005
17997	1.3107e+006
17998	1.3869e+006
17998	2.3233e+006
17999	5.7955e+005
17999	2.4172e+006
18000	5.5759e+006
18000	4.5542e+006
18001	3.5328e+006
18001	4.5265e+006
18002	5.058e+006
18002	3.1241e+006
18003	2.0244e+006
18003	1.3777e+006
18004	2.922e+006
18004	3.2233e+006
18005	9.1801e+005
18005	2.0378e+006
18006	0.
18006	0.
18007	5.1263e+006
18007	3.0193e+006
18008	2.0353e+006
18008	7.2725e+005
18009	0.
18009	0.
18010	2.0297e+006
18010	2.7495e+006
18011	0.
18011	0.
18012	5.2002e+006
18012	3.1647e+006
18013	1.1584e+006
18013	7.5769e+005
18014	2.3194e+006
18014	3.1431e+006
18015	2.1038e+006
18015	1.5745e+006
18016	9.8474e+006
18016	4.0037e+006
18017	0.
18017	0.
18018	2.105e+006
18018	2.192e+006
18019	6.1627e+005
18019	1.7381e+006
18020	6.4855e+006
18020	3.8524e+006
18021	3.6798e+006
18021	3.0403e+006
18022	6.763e+005
18022	1.1515e+006
18023	3.2637e+005
18023	1.252e+006
18024	4.8969e+005
18024	5.5394e+005
18025	0.
18025	0.
18026	0.
18026	0.
18027	0.
18027	0.
18028	0.
18028	0.
18029	1.5012e+006
18029	2.184e+006
18030	0.
18030	0.
18031	1.4611e+006
18031	2.0633e+006
18032	9.1585e+005
18032	2.2835e+006
18033	0.
18033	0.
18034	2.09e+006
18034	1.7336e+006
18035	4.0361e+006
18035	3.8293e+006
18036	5.1285e+005
18036	1.3486e+006
18037	0.
18037	0.
18038	8.2836e+005
18038	4.6235e+006
18039	1.6241e+006
18039	3.2788e+006
18040	1.5227e+006
18040	2.4277e+006
18041	2.8102e+006
18041	2.1875e+006
18042	2.2637e+006
18042	2.6168e+006
18043	5.2254e+005
18043	9.7766e+005
18044	1.6357e+006
18044	1.8346e+006
18045	2.3154e+006
18045	4.8157e+006
18046	3.0871e+006
18046	1.8137e+006
18047	0.
18047	0.
18048	9.8129e+005
18048	5.8065e+005
18049	1.9075e+005
18049	2.5454e+006
18050	1.5678e+006
18050	1.0775e+006
18051	3.9139e+006
18051	2.5631e+006
18052	1.6674e+006
18052	2.9667e+006
18053	5.8146e+006
18053	3.5125e+006
18054	1.7368e+006
18054	1.5398e+006
18055	3.1099e+006
18055	5.1426e+006
18056	1.2288e+006
18056	1.7935e+006
18057	0.
18057	0.
18058	0.
18058	0.
18059	0.
18059	0.
18060	1.95e+006
18060	1.7044e+006
18061	3.0223e+006
18061	5.363e+006
18062	1.0654e+006
18062	1.9011e+006
18063	0.
18063	0.
18064	0.
18064	0.
18065	0.
18065	0.
18066	6.9413e+005
18066	1.0146e+006
18067	8.3174e+005
18067	1.4812e+006
18068	0.
18068	0.
18069	8.176e+005
18069	8.4874e+005
18070	0.
18070	0.
18071	0.
18071	0.
18072	1.0405e+006
18072	1.1858e+006
18073	8.7683e+005
18073	1.118e+006
18074	0.
18074	0.
18075	7.5389e+005
18075	1.3129e+006
18076	8.8856e+005
18076	1.4524e+006
18077	0.
18077	0.
18078	0.
18078	0.
18079	7.4423e+005
18079	1.5606e+006
18080	1.8703e+006
18080	2.4427e+006
18081	9.8289e+005
18081	1.9018e+006
18082	2.0184e+006
18082	2.7502e+006
18083	3.3999e+006
18083	2.1822e+006
18084	7.8409e+005
18084	1.4446e+006
18085	1.4642e+006
18085	8.6027e+005
18086	0.
18086	0.
18087	0.
18087	0.
18088	0.
18088	0.
18089	0.
18089	0.
18090	3.605e+006
18090	2.2495e+006
18091	6.4564e+005
18091	7.2421e+005
18092	6.2437e+006
18092	6.2126e+006
18093	4.3031e+005
18093	1.3138e+006
18094	0.
18094	0.
18095	4.4189e+006
18095	8.3142e+006
18096	5.5579e+006
18096	5.201e+006
18097	0.
18097	0.
18098	2.2036e+006
18098	1.9373e+006
18099	2.9102e+006
18099	3.2477e+006
18100	1.1853e+006
18100	1.7368e+006
18101	4.5448e+006
18101	2.218e+006
18102	0.
18102	0.
18103	0.
18103	0.
18104	0.
18104	0.
18105	1.8508e+006
18105	2.3096e+006
18106	4.4557e+006
18106	5.9986e+006
18107	2.2996e+006
18107	3.0241e+006
18108	1.5063e+006
18108	8.8808e+005
18109	2.0118e+006
18109	6.4399e+006
18110	1.7473e+006
18110	1.6904e+006
18111	8.0274e+005
18111	6.5485e+005
18112	0.
18112	0.
18113	3.5651e+006
18113	4.5723e+006
18114	0.
18114	0.
18115	0.
18115	0.
18116	0.
18116	0.
18117	2.0054e+006
18117	4.7676e+006
18118	7.2496e+006
18118	1.0871e+007
18119	2.2275e+006
18119	5.9413e+006
18120	1.4266e+006
18120	1.2205e+006
18121	7.0157e+005
18121	1.3383e+006
18122	2.9639e+006
18122	1.7055e+006
18123	0.
18123	0.
18124	3.9793e+006
18124	5.9586e+006
18125	8.5097e+005
18125	2.1659e+006
18126	2.6449e+006
18126	2.1742e+006
18127	2.078e+006
18127	5.4279e+005
18128	1.7258e+006
18128	3.1121e+006
18129	1.1149e+006
18129	1.4152e+006
18130	0.
18130	0.
18131	2.4909e+006
18131	4.8428e+006
18132	9.3218e+005
18132	7.745e+005
18133	1.6148e+006
18133	7.8114e+005
18134	0.
18134	0.
18135	1.8975e+006
18135	1.0124e+006
18136	2.7326e+006
18136	1.3342e+006
18137	8.0548e+005
18137	5.5084e+005
18138	2.6034e+006
18138	5.4306e+006
18139	3.3238e+006
18139	5.356e+006
18140	2.4225e+006
18140	5.1927e+006
18141	1.7345e+006
18141	1.3748e+006
18142	2.4178e+006
18142	1.7731e+006
18143	1.8875e+006
18143	8.6458e+005
18144	1.4923e+006
18144	1.2735e+006
18145	2.4675e+006
18145	2.7032e+006
18146	0.
18146	0.
18147	2.8178e+006
18147	4.2509e+006
18148	2.203e+006
18148	3.7682e+006
18149	2.4294e+006
18149	1.9088e+006
18150	2.5158e+006
18150	3.2416e+006
18151	3.0271e+006
18151	1.6164e+006
18152	2.3501e+006
18152	3.3268e+006
18153	2.0593e+006
18153	2.3816e+006
18154	0.
18154	0.
18155	1.6352e+006
18155	1.0399e+006
18156	2.3412e+006
18156	2.5252e+006
18157	2.493e+006
18157	5.5522e+006
18158	2.7966e+006
18158	5.1673e+006
18159	9.4963e+005
18159	1.6073e+006
18160	0.
18160	0.
18161	2.0446e+006
18161	4.3573e+006
18162	1.2015e+006
18162	2.1978e+006
18163	5.4834e+005
18163	4.9999e+005
18164	5.51e+005
18164	4.9397e+005
18165	7.0896e+005
18165	6.3886e+005
18166	5.2741e+006
18166	4.5601e+006
18167	5.003e+006
18167	6.9688e+006
18168	5.8534e+006
18168	5.9473e+006
18169	0.
18169	0.
18170	0.
18170	0.
18171	0.
18171	0.
18172	0.
18172	0.
18173	2.8742e+006
18173	2.046e+006
18174	3.5477e+006
18174	1.6765e+006
18175	1.965e+006
18175	2.9028e+006
18176	1.5936e+006
18176	3.4652e+006
18177	4.1768e+006
18177	1.1582e+006
18178	4.0161e+006
18178	1.7296e+006
18179	1.6632e+006
18179	9.9205e+005
18180	1.7589e+006
18180	4.9257e+005
18181	3.8628e+006
18181	1.5372e+006
18182	0.
18182	0.
18183	0.
18183	0.
18184	3.752e+006
18184	1.6871e+006
18185	1.6192e+006
18185	2.6048e+006
18186	1.3887e+006
18186	9.5535e+005
18187	5.0636e+006
18187	4.3911e+006
18188	1.0629e+006
18188	9.8823e+005
18189	4.6765e+006
18189	4.0377e+006
18190	3.925e+006
18190	3.8786e+006
18191	1.0762e+006
18191	3.7449e+005
18192	4.5392e+005
18192	6.5058e+005
18193	1.1525e+006
18193	6.2333e+005
18194	8.5905e+005
18194	5.7006e+005
18195	5.8659e+005
18195	3.2912e+005
18196	1.4034e+006
18196	4.4284e+005
18197	0.
18197	0.
18198	0.
18198	0.
18199	0.
18199	0.
18200	4.312e+006
18200	4.8887e+006
18201	7.3152e+006
18201	6.2503e+006
18202	6.7111e+006
18202	4.827e+006
18203	2.7339e+006
18203	4.2799e+006
18204	7.384e+006
18204	3.2101e+006
18205	4.753e+006
18205	4.3659e+006
18206	3.6459e+006
18206	3.34e+006
18207	0.
18207	0.
18208	1.4914e+006
18208	3.0854e+006
18209	0.
18209	0.
18210	1.3938e+006
18210	2.7986e+006
18211	0.
18211	0.
18212	4.6668e+006
18212	3.1193e+006
18213	2.6322e+006
18213	1.3338e+006
18214	0.
18214	0.
18215	2.5378e+006
18215	3.237e+006
18216	1.9068e+006
18216	2.9952e+006
18217	1.2814e+006
18217	2.57e+006
18218	2.5155e+006
18218	3.6323e+006
18219	8.9848e+005
18219	1.0236e+006
18220	4.3943e+006
18220	2.028e+006
18221	4.2495e+005
18221	2.2216e+006
18222	6.8281e+005
18222	1.0627e+006
18223	3.4833e+006
18223	1.4796e+006
18224	1.7013e+006
18224	1.3247e+006
18225	0.
18225	0.
18226	3.7364e+005
18226	5.9722e+005
18227	9.1318e+005
18227	6.6181e+005
18228	3.4108e+006
18228	3.3476e+006
18229	5.9797e+006
18229	4.7846e+006
18230	0.
18230	0.
18231	0.
18231	0.
18232	1.8458e+006
18232	2.6446e+006
18233	1.6934e+006
18233	3.3616e+006
18234	3.2315e+006
18234	2.7906e+006
18235	2.3385e+006
18235	3.9542e+006
18236	5.4557e+006
18236	2.4215e+006
18237	8.2951e+005
18237	2.0419e+006
18238	0.
18238	0.
18239	4.65e+006
18239	6.4402e+006
18240	1.5764e+006
18240	3.1692e+006
18241	0.
18241	0.
18242	1.5363e+006
18242	6.0155e+005
18243	9.097e+005
18243	7.9688e+005
18244	0.
18244	0.
18245	7.4629e+005
18245	5.8031e+005
18246	4.764e+006
18246	4.5065e+006
18247	3.6946e+006
18247	4.1547e+006
18248	0.
18248	0.
18249	2.2693e+005
18249	1.2922e+006
18250	1.3142e+006
18250	3.0491e+006
18251	2.1131e+006
18251	3.6015e+006
18252	0.
18252	0.
18253	2.5396e+006
18253	3.1425e+006
18254	2.3756e+006
18254	3.168e+006
18255	1.8209e+006
18255	2.1669e+006
18256	2.1719e+006
18256	3.8997e+006
18257	2.0459e+006
18257	2.3859e+006
18258	2.6262e+006
18258	1.9382e+006
18259	5.9002e+005
18259	1.0877e+006
18260	0.
18260	0.
18261	9.8612e+005
18261	1.0588e+006
18262	3.2745e+006
18262	4.553e+006
18263	2.0109e+006
18263	3.369e+006
18264	1.0462e+006
18264	8.4811e+005
18265	0.
18265	0.
18266	1.2632e+006
18266	2.9379e+006
18267	3.6552e+006
18267	1.9709e+006
18268	0.
18268	0.
18269	4.4199e+006
18269	4.7467e+006
18270	5.1647e+006
18270	2.0011e+006
18271	1.3383e+006
18271	1.4419e+006
18272	0.
18272	0.
18273	5.1229e+006
18273	4.9648e+006
18274	0.
18274	0.
18275	4.6792e+006
18275	2.4815e+006
18276	0.
18276	0.
18277	0.
18277	0.
18278	1.5841e+006
18278	2.1671e+006
18279	0.
18279	0.
18280	4.1519e+006
18280	3.7451e+006
18281	1.5887e+006
18281	3.6002e+005
18282	0.
18282	0.
18283	3.5257e+006
18283	4.388e+006
18284	1.4097e+006
18284	9.6379e+005
18285	0.
18285	0.
18286	1.5589e+006
18286	2.0348e+006
18287	0.
18287	0.
18288	4.3412e+006
18288	3.336e+006
18289	2.1499e+006
18289	1.6747e+006
18290	5.6197e+006
18290	2.7643e+006
18291	1.9592e+006
18291	1.375e+006
18292	1.2499e+006
18292	3.5941e+005
18293	7.2497e+005
18293	1.345e+006
18294	5.8222e+006
18294	4.7487e+006
18295	1.0028e+006
18295	8.0519e+005
18296	3.3235e+006
18296	3.7128e+006
18297	1.5869e+006
18297	2.3605e+006
18298	0.
18298	0.
18299	4.7609e+006
18299	2.2699e+006
18300	2.3864e+006
18300	2.6595e+006
18301	1.5567e+006
18301	1.0811e+006
18302	1.2205e+006
18302	7.5316e+005
18303	2.1101e+006
18303	9.9503e+005
18304	1.9052e+006
18304	2.162e+006
18305	4.5949e+006
18305	4.6462e+006
18306	4.1785e+006
18306	4.1064e+006
18307	1.085e+006
18307	1.4426e+006
18308	2.3928e+006
18308	1.5377e+006
18309	2.1371e+006
18309	5.1198e+006
18310	3.9493e+006
18310	4.2e+006
18311	4.2123e+006
18311	4.1695e+006
18312	2.0749e+006
18312	2.8709e+006
18313	0.
18313	0.
18314	0.
18314	0.
18315	1.7447e+006
18315	4.1139e+006
18316	8.1848e+005
18316	2.3145e+006
18317	2.3782e+006
18317	2.2615e+006
18318	6.6394e+006
18318	4.571e+006
18319	4.1514e+006
18319	3.8048e+006
18320	3.6718e+006
18320	3.3832e+006
18321	4.6343e+006
18321	5.5247e+006
18322	1.6137e+006
18322	7.4165e+005
18323	1.6038e+006
18323	1.8023e+006
18324	2.3101e+006
18324	3.0654e+006
18325	3.1828e+006
18325	3.4895e+006
18326	1.0823e+006
18326	2.3713e+006
18327	3.5434e+006
18327	4.2289e+006
18328	1.6075e+006
18328	3.4395e+006
18329	0.
18329	0.
18330	0.
18330	0.
18331	0.
18331	0.
18332	0.
18332	0.
18333	5.7012e+005
18333	8.9407e+005
18334	1.9723e+006
18334	2.3566e+006
18335	3.235e+006
18335	1.9138e+006
18336	9.9702e+005
18336	2.1605e+006
18337	2.7065e+006
18337	3.4788e+006
18338	9.4494e+005
18338	1.4802e+006
18339	1.8698e+006
18339	2.5151e+006
18340	2.7105e+006
18340	2.6574e+006
18341	4.5238e+006
18341	4.0673e+006
18342	2.0583e+006
18342	3.4027e+006
18343	0.
18343	0.
18344	0.
18344	0.
18345	2.8878e+005
18345	3.0963e+006
18346	1.9907e+006
18346	1.9409e+006
18347	1.0053e+006
18347	1.4872e+006
18348	2.6616e+006
18348	2.3648e+006
18349	3.2175e+006
18349	3.8662e+006
18350	2.8623e+006
18350	3.6788e+006
18351	2.141e+006
18351	1.6353e+006
18352	3.5034e+006
18352	3.0841e+006
18353	3.1147e+006
18353	2.8025e+006
18354	1.9694e+006
18354	1.1311e+006
18355	3.1824e+006
18355	2.7301e+006
18356	2.3667e+006
18356	1.2974e+006
18357	3.3607e+006
18357	3.7016e+006
18358	0.
18358	0.
18359	2.4789e+006
18359	1.8466e+006
18360	2.3252e+006
18360	1.8015e+006
18361	1.4095e+006
18361	3.6992e+005
18362	0.
18362	0.
18363	0.
18363	0.
18364	7.2129e+005
18364	5.1177e+005
18365	1.0744e+006
18365	9.3583e+005
18366	0.
18366	0.
18367	1.7141e+006
18367	1.037e+006
18368	0.
18368	0.
18369	1.5474e+006
18369	1.4957e+006
18370	4.4923e+006
18370	2.4238e+006
18371	3.1753e+005
18371	4.7081e+005
18372	0.
18372	0.
18373	1.7292e+006
18373	8.5849e+005
18374	1.9965e+006
18374	1.497e+006
18375	1.4092e+006
18375	1.0967e+006
18376	1.4481e+006
18376	1.0091e+006
18377	0.
18377	0.
18378	1.5295e+006
18378	5.6537e+005
18379	0.
18379	0.
18380	1.362e+006
18380	1.3616e+006
18381	8.9635e+005
18381	3.5484e+005
18382	3.4305e+006
18382	2.9282e+006
18383	2.4281e+006
18383	2.0001e+006
18384	3.798e+006
18384	3.2951e+006
18385	0.
18385	0.
18386	1.6555e+006
18386	1.1998e+006
18387	0.
18387	0.
18388	2.1466e+006
18388	1.247e+006
18389	2.6249e+006
18389	2.4533e+006
18390	2.3864e+006
18390	2.0241e+006
18391	1.4268e+006
18391	1.7477e+006
18392	3.0112e+006
18392	4.3979e+006
18393	0.
18393	0.
18394	1.1284e+006
18394	8.6655e+005
18395	8.0322e+005
18395	1.1086e+006
18396	0.
18396	0.
18397	1.7919e+006
18397	1.3644e+006
18398	1161.2
18398	1099.7
18399	4.8539e+006
18399	3.6243e+006
18400	0.
18400	0.
18401	7.1909e+006
18401	2.7746e+006
18402	2.2732e+006
18402	1.3127e+006
18403	1.5629e+006
18403	1.7657e+006
18404	7.2206e+005
18404	1.2101e+006
18405	5.1731e+006
18405	6.0157e+006
18406	0.
18406	0.
18407	3.9057e+006
18407	4.1917e+006
18408	2.1504e+005
18408	2.0632e+006
18409	3.9293e+006
18409	4.2002e+006
18410	0.
18410	0.
18411	2.2542e+006
18411	4.0833e+006
18412	0.
18412	0.
18413	3.7523e+006
18413	1.434e+006
18414	5.4806e+005
18414	3.8271e+005
18415	1.2635e+006
18415	4.5479e+005
18416	5.4599e+005
18416	8.7126e+005
18417	0.
18417	0.
18418	9.6588e+005
18418	1.1857e+006
18419	2.534e+006
18419	2.0414e+006
18420	7.3748e+006
18420	3.3418e+006
18421	1.9252e+006
18421	7.1083e+005
18422	1.2039e+005
18422	9.4784e+005
18423	0.
18423	0.
18424	5.1401e+006
18424	6.7351e+006
18425	3.8639e+006
18425	3.1848e+006
18426	0.
18426	0.
18427	1.1164e+006
18427	8.819e+005
18428	1.0099e+006
18428	1.3318e+006
18429	0.
18429	0.
18430	4.8049e+005
18430	1.2138e+006
18431	9.7428e+005
18431	1.2838e+006
18432	5.0422e+005
18432	9.3177e+005
18433	2.2321e+006
18433	3.6563e+006
18434	5.9701e+006
18434	8.4731e+006
18435	3.0892e+006
18435	5.3918e+006
18436	3.565e+005
18436	3.6357e+005
18437	0.
18437	0.
18438	0.
18438	0.
18439	7.7125e+006
18439	5.9414e+006
18440	0.
18440	0.
18441	8.8288e+005
18441	3.937e+005
18442	1.5999e+006
18442	7.4718e+005
18443	1.0417e+006
18443	1.5164e+006
18444	5.4163e+006
18444	3.7584e+006
18445	0.
18445	0.
18446	2.3721e+006
18446	2.447e+006
18447	6.9214e+005
18447	6.7769e+005
18448	2.5024e+006
18448	2.2318e+006
18449	0.
18449	0.
18450	1.3927e+006
18450	3.6947e+006
18451	3.537e+006
18451	4.3982e+006
18452	1.8102e+006
18452	4.5638e+005
18453	3.5453e+006
18453	2.2599e+006
18454	0.
18454	0.
18455	0.
18455	0.
18456	0.
18456	0.
18457	1.3551e+006
18457	6.4533e+005
18458	0.
18458	0.
18459	0.
18459	0.
18460	4.0255e+006
18460	3.8597e+006
18461	3.4311e+006
18461	2.7575e+006
18462	7.0454e+005
18462	1.9543e+005
18463	1.7669e+006
18463	1.4282e+006
18464	2.1058e+006
18464	1.7195e+006
18465	0.
18465	0.
18466	1.6019e+006
18466	2.2709e+006
18467	4.3213e+006
18467	3.7606e+006
18468	0.
18468	0.
18469	0.
18469	0.
18470	0.
18470	0.
18471	0.
18471	0.
18472	2.5203e+006
18472	3.5809e+006
18473	2.5225e+006
18473	2.5167e+006
18474	3.4082e+006
18474	2.4172e+006
18475	2.4868e+006
18475	3.5181e+006
18476	3.2017e+006
18476	1.1928e+006
18477	3.6001e+006
18477	1.3043e+006
18478	0.
18478	0.
18479	0.
18479	0.
18480	0.
18480	0.
18481	0.
18481	0.
18482	0.
18482	0.
18483	0.
18483	0.
18484	3.3592e+005
18484	3.0406e+005
18485	4.4326e+005
18485	5.2542e+005
18486	1.1297e+005
18486	1.7853e+005
18487	2.8466e+005
18487	95656
18488	0.
18488	0.
18489	0.
18489	0.
18490	0.
18490	0.
18491	0.
18491	0.
18492	0.
18492	0.
18493	0.
18493	0.
18494	0.
18494	0.
18495	0.
18495	0.
18496	0.
18496	0.
18497	0.
18497	0.
18498	0.
18498	0.
18499	0.
18499	0.
18500	0.
18500	0.
18501	0.
18501	0.
18502	2.0245e+006
18502	2.1276e+006
18503	0.
18503	0.
18504	2.8254e+006
18504	1.1915e+006
18505	3.4107e+006
18505	3.3351e+006
18506	2.8213e+006
18506	2.2188e+006
18507	4.1627e+006
18507	4.9194e+006
18508	5.6947e+005
18508	1.7405e+006
18509	7.7355e+005
18509	1.1375e+006
18510	1.7763e+006
18510	1.4683e+006
18511	1.2317e+006
18511	3.161e+006
18512	2.2031e+006
18512	1.9105e+006
18513	2.5105e+006
18513	1.7315e+006
18514	1.9143e+006
18514	2.3847e+006
18515	1.8345e+006
18515	2.2539e+006
18516	2.6496e+006
18516	6.2806e+005
18517	1.5713e+006
18517	1.2546e+006
18518	1.9433e+006
18518	1.672e+006
18519	4.4531e+006
18519	1.1641e+006
18520	4.2984e+006
18520	5.3747e+006
18521	1.5533e+006
18521	3.1716e+006
18522	1.1483e+006
18522	1.3886e+006
18523	5.8696e+006
18523	1.5307e+006
18524	2.0424e+006
18524	1.8565e+006
18525	9.3965e+005
18525	1.5649e+006
18526	1.2032e+006
18526	1.7736e+006
18527	6.9483e+005
18527	1.7264e+006
18528	3.3726e+006
18528	3.19e+006
18529	1.9621e+006
18529	1.67e+006
18530	2.201e+006
18530	2.1541e+006
18531	4.3366e+006
18531	2.4556e+006
18532	3.2236e+006
18532	2.3564e+006
18533	3.3452e+006
18533	3.0474e+006
18534	1.4163e+006
18534	3.5198e+006
18535	1.3235e+006
18535	3.304e+006
18536	3.2944e+006
18536	2.7213e+006
18537	3.3834e+006
18537	1.8458e+006
18538	3.4987e+006
18538	1.6794e+006
18539	4.1552e+006
18539	2.9809e+006
18540	6.3385e+005
18540	6.0397e+005
18541	3.0027e+006
18541	2.9208e+006
18542	1.4734e+006
18542	1.2275e+006
18543	2.3095e+006
18543	2.5796e+006
18544	1.0011e+006
18544	1.0118e+006
18545	8.0732e+005
18545	6.2569e+005
18546	6.659e+005
18546	8.3314e+005
18547	7.5948e+005
18547	6.1832e+005
18548	1.4345e+006
18548	1.7207e+006
18549	1.5186e+006
18549	1.2452e+006
18550	8.377e+005
18550	1.0729e+006
18551	2.8453e+006
18551	1.5492e+006
18552	1.8249e+006
18552	2.149e+006
18553	2.093e+006
18553	2.4606e+006
18554	3.178e+006
18554	1.6009e+006
18555	1.8531e+006
18555	2.3867e+006
18556	1.4316e+006
18556	9.5262e+005
18557	1.3662e+006
18557	3.3323e+005
18558	2.2215e+006
18558	1.17e+006
18559	1.1187e+006
18559	1.774e+006
18560	7.3714e+006
18560	4.2977e+006
18561	6.8376e+006
18561	3.7167e+006
18562	4.194e+006
18562	2.4349e+006
18563	4.4604e+006
18563	2.0968e+006
18564	2.6357e+006
18564	3.6571e+006
18565	2.1483e+006
18565	3.3077e+006
18566	5.2685e+006
18566	1.5805e+006
18567	3.9386e+006
18567	1.2742e+006
18568	2.2924e+006
18568	3.0309e+006
18569	2.7245e+006
18569	8.0501e+005
18570	5.0105e+006
18570	3.2002e+006
18571	2.3653e+006
18571	4.2002e+006
18572	2.4878e+006
18572	3.4573e+006
18573	2.3646e+006
18573	2.2114e+006
18574	2.0076e+006
18574	1.2949e+006
18575	2.6158e+006
18575	2.5548e+006
18576	3.4283e+006
18576	1.4271e+006
18577	1.1e+006
18577	1.2982e+006
18578	1.6787e+006
18578	1.6405e+006
18579	7.247e+005
18579	1.6375e+006
18580	1.551e+006
18580	1.2965e+006
18581	1.7607e+006
18581	1.8561e+006
18582	8.341e+005
18582	1.5819e+006
18583	2.4844e+006
18583	5.2685e+006
18584	3.6894e+006
18584	2.5973e+006
18585	3.126e+006
18585	2.1482e+006
18586	1.2571e+006
18586	2.4953e+006
18587	2.3379e+006
18587	4.2674e+006
18588	1.0552e+006
18588	2.2061e+006
18589	1.5882e+006
18589	2.5934e+006
18590	1.9327e+006
18590	3.1799e+006
18591	4.9841e+006
18591	2.6072e+006
18592	9.8213e+005
18592	1.571e+006
18593	3.9354e+006
18593	2.2407e+006
18594	4.4144e+005
18594	1.0661e+006
18595	1.4294e+006
18595	1.1524e+006
18596	2.8986e+006
18596	1.7234e+006
18597	1.953e+006
18597	1.5871e+006
18598	5.2036e+006
18598	3.6787e+006
18599	8.6156e+005
18599	8.0857e+005
18600	6.7319e+006
18600	2.9566e+006
18601	2.7231e+006
18601	7.6447e+006
18602	2.557e+006
18602	1.025e+006
18603	3.3497e+006
18603	3.7986e+006
18604	8.5261e+005
18604	1.8473e+006
18605	2.5267e+006
18605	1.7729e+006
18606	3.9201e+006
18606	3.6708e+006
18607	1.091e+006
18607	1.6124e+006
18608	7.4734e+005
18608	1.9034e+006
18609	2.4544e+006
18609	3.7001e+006
18610	3.9953e+006
18610	4.4306e+006
18611	3.063e+006
18611	3.3506e+006
18612	1.1855e+006
18612	4.4866e+006
18613	1.9837e+006
18613	5.042e+006
18614	8.5549e+005
18614	6.4525e+006
18615	1.4037e+006
18615	2.1425e+006
18616	1.6087e+006
18616	3.4619e+006
18617	9.8068e+005
18617	2.7236e+006
18618	4.5408e+006
18618	9.2758e+005
18619	4.133e+006
18619	2.8982e+006
18620	1.2251e+006
18620	1.3038e+006
18621	8.8136e+005
18621	2.3766e+006
18622	3.2034e+006
18622	4.4586e+006
18623	3.4944e+006
18623	4.5909e+006
18624	1.134e+006
18624	2.341e+006
18625	1.5034e+006
18625	5.4116e+005
18626	1.7495e+006
18626	8.1782e+005
18627	9.0403e+005
18627	1.5903e+006
18628	1.3236e+006
18628	2.0307e+006
18629	2.0374e+006
18629	1.1295e+006
18630	2.3591e+006
18630	3.9725e+005
18631	2.4996e+006
18631	2.9891e+006
18632	2.6859e+006
18632	2.5244e+006
18633	2.9065e+006
18633	2.4906e+006
18634	1.0153e+006
18634	2.9298e+006
18635	2.2893e+006
18635	2.3574e+006
18636	2.9677e+006
18636	2.5906e+006
18637	4.0525e+006
18637	1.4518e+006
18638	1.5199e+006
18638	1.8416e+006
18639	8.3589e+005
18639	2.2513e+006
18640	2.8237e+006
18640	2.7602e+006
18641	1.9081e+006
18641	1.0907e+006
18642	1.8196e+006
18642	1.0661e+006
18643	4.9768e+005
18643	1.3829e+006
18644	0.
18644	0.
18645	0.
18645	0.
18646	0.
18646	0.
18647	0.
18647	0.
18648	0.
18648	0.
18649	0.
18649	0.
18650	1.4657e+006
18650	1.1878e+006
18651	0.
18651	0.
18652	1.8793e+006
18652	6.5129e+005
18653	1.2522e+006
18653	4.e+006
18654	9.0536e+005
18654	2.6348e+006
18655	1.9374e+006
18655	1.6424e+006
18656	3.8241e+006
18656	3.0325e+006
18657	1.0991e+006
18657	1.8733e+006
18658	1.968e+006
18658	3.1008e+006
18659	1.0093e+006
18659	1.2178e+006
18660	1.333e+006
18660	2.3317e+005
18661	1.9984e+006
18661	1.2452e+006
18662	1.8195e+006
18662	1.2996e+006
18663	8.0635e+005
18663	1.279e+006
18664	1.5476e+006
18664	6.624e+005
18665	2.151e+006
18665	2.5997e+006
18666	1.8514e+006
18666	2.9196e+006
18667	1.4915e+006
18667	3.0825e+006
18668	4.0861e+006
18668	3.4615e+006
18669	3.9243e+006
18669	1.7201e+006
18670	1.2105e+006
18670	1.967e+006
18671	1.5495e+006
18671	2.5963e+006
18672	2.8055e+006
18672	1.4486e+006
18673	3.8605e+006
18673	2.166e+006
18674	4.4703e+006
18674	2.7807e+006
18675	2.6754e+006
18675	2.0509e+006
18676	2.8916e+006
18676	2.2384e+006
18677	2.4335e+006
18677	2.3021e+006
18678	2.0258e+006
18678	2.6826e+006
18679	1.835e+006
18679	7.9032e+005
18680	2.2353e+006
18680	1.1682e+006
18681	1.1706e+006
18681	3.2926e+006
18682	8.3596e+006
18682	6.7908e+006
18683	2.0172e+006
18683	2.028e+006
18684	1.3503e+006
18684	2.7978e+006
18685	8.9919e+005
18685	2.1257e+006
18686	1.2257e+006
18686	1.593e+006
18687	1.1593e+006
18687	2.8995e+006
18688	7.3477e+005
18688	1.1016e+006
18689	1.8875e+006
18689	9.8198e+005
18690	1.3187e+006
18690	1.5189e+006
18691	1.7974e+006
18691	2.358e+006
18692	0.
18692	0.
18693	0.
18693	0.
18694	0.
18694	0.
18695	0.
18695	0.
18696	0.
18696	0.
18697	0.
18697	0.
18698	0.
18698	0.
18699	0.
18699	0.
18700	0.
18700	0.
18701	0.
18701	0.
18702	0.
18702	0.
18703	0.
18703	0.
18704	0.
18704	0.
18705	0.
18705	0.
18706	0.
18706	0.
18707	0.
18707	0.
18708	0.
18708	0.
18709	2.1178e+006
18709	1.6353e+006
18710	0.
18710	0.
18711	0.
18711	0.
18712	0.
18712	0.
18713	0.
18713	0.
18714	0.
18714	0.
18715	2.1996e+006
18715	2.4959e+006
18716	1.8881e+006
18716	1.7507e+006
18717	1.3056e+006
18717	2.1408e+006
18718	1.5709e+006
18718	1.141e+006
18719	7.4093e+005
18719	1.562e+006
18720	2.1824e+006
18720	2.0959e+006
18721	1.441e+006
18721	1.5448e+006
18722	3.8955e+006
18722	3.1568e+006
18723	2.0946e+006
18723	4.1768e+006
18724	1.8018e+006
18724	2.4552e+006
18725	2.0867e+006
18725	1.4849e+006
18726	4.4459e+006
18726	2.2838e+006
18727	3.1532e+006
18727	5.0521e+006
18728	1.8098e+006
18728	3.1912e+006
18729	6.8802e+006
18729	2.5258e+006
18730	2.7313e+006
18730	1.4837e+006
18731	2.2688e+006
18731	1.3376e+006
18732	4.7776e+006
18732	4.2672e+006
18733	2.1189e+006
18733	3.1321e+006
18734	2.1376e+006
18734	1.453e+006
18735	1.2951e+006
18735	1.3407e+006
18736	1.2117e+006
18736	6.9517e+005
18737	2.5151e+006
18737	2.466e+006
18738	2.972e+006
18738	1.022e+006
18739	3.298e+006
18739	3.7037e+006
18740	1.4994e+006
18740	3.3715e+006
18741	1.2713e+006
18741	8.5388e+005
18742	4.0262e+006
18742	2.6089e+006
18743	3.4884e+006
18743	3.6389e+006
18744	5.4133e+006
18744	3.4484e+006
18745	2.7294e+006
18745	5.0685e+006
18746	3.335e+006
18746	1.5088e+006
18747	2.8826e+006
18747	4.0115e+006
18748	1.1103e+006
18748	8.626e+005
18749	2.9517e+006
18749	4.8099e+006
18750	2.1076e+006
18750	1.2822e+006
18751	1.4832e+006
18751	1.1201e+006
18752	6.113e+006
18752	3.0303e+006
18753	1.8436e+006
18753	2.5242e+005
18754	1.1789e+006
18754	3.9892e+006
18755	1.9189e+006
18755	3.1313e+006
18756	3.0154e+006
18756	4.9578e+006
18757	2.0465e+006
18757	2.333e+006
18758	3.4547e+006
18758	4.526e+006
18759	4.8416e+006
18759	2.8339e+006
18760	2.2156e+006
18760	4.7322e+005
18761	8.3582e+005
18761	3.1553e+006
18762	6.3727e+006
18762	4.4382e+006
18763	2.9436e+006
18763	3.369e+006
18764	1.8883e+006
18764	7.5777e+005
18765	2.3021e+006
18765	1.9732e+006
18766	3.2277e+006
18766	2.1254e+006
18767	2.7411e+006
18767	3.2878e+006
18768	3.3007e+006
18768	1.2553e+006
18769	2.9786e+006
18769	2.374e+006
18770	6.1002e+005
18770	1.8295e+006
18771	2.5848e+006
18771	2.8614e+006
18772	1.0864e+006
18772	2.7303e+006
18773	5.0721e+006
18773	2.1573e+006
18774	3.227e+006
18774	2.9269e+006
18775	3.1236e+006
18775	5.6291e+006
18776	1.7562e+006
18776	1.7723e+006
18777	1.3823e+006
18777	2.0762e+006
18778	1.6443e+006
18778	1.8111e+006
18779	1.4689e+006
18779	2.0319e+006
18780	2.2066e+006
18780	1.3571e+006
18781	2.468e+006
18781	1.9731e+006
18782	2.4333e+006
18782	3.1989e+006
18783	2.5487e+006
18783	3.6545e+006
18784	2.7165e+006
18784	2.7528e+006
18785	3.9217e+006
18785	3.8106e+006
18786	2.293e+006
18786	2.5284e+006
18787	1.9833e+006
18787	5.0606e+006
18788	3.9602e+006
18788	1.1001e+006
18789	1.0875e+006
18789	3.4758e+006
18790	2.6164e+006
18790	2.8902e+006
18791	3.1469e+006
18791	2.6283e+006
18792	3.3348e+006
18792	1.5438e+006
18793	1.3077e+006
18793	1.1159e+006
18794	1.0714e+006
18794	1.2385e+006
18795	2.6592e+006
18795	2.7876e+006
18796	2.7592e+006
18796	2.2e+006
18797	2.8463e+006
18797	1.3934e+006
18798	2.2285e+006
18798	1.3188e+006
18799	1.5069e+006
18799	1.5829e+006
18800	1.0463e+006
18800	1.4003e+006
18801	2.4866e+006
18801	1.3819e+006
18802	2.6689e+006
18802	1.7977e+006
18803	4.8082e+005
18803	1.0764e+006
18804	1.4709e+006
18804	1.4757e+006
18805	2.1383e+006
18805	1.1537e+006
18806	1.5287e+006
18806	1.5209e+006
18807	2.1686e+006
18807	1.5113e+006
18808	1.663e+006
18808	8.2147e+005
18809	1.4081e+006
18809	1.0014e+006
18810	1.6564e+006
18810	1.1883e+006
18811	1.4548e+006
18811	1.4339e+006
18812	1.8827e+006
18812	6.6343e+005
18813	1.0539e+006
18813	6.2728e+005
18814	9.4447e+005
18814	8.7833e+005
18815	9.2745e+005
18815	1.2408e+006
18816	0.
18816	0.
18817	0.
18817	0.
18818	0.
18818	0.
18819	0.
18819	0.
18820	0.
18820	0.
18821	0.
18821	0.
18822	0.
18822	0.
18823	0.
18823	0.
18824	0.
18824	0.
18825	0.
18825	0.
18826	2.2853e+006
18826	1.4545e+006
18827	0.
18827	0.
18828	1.86e+006
18828	5.2088e+005
18829	0.
18829	0.
18830	0.
18830	0.
18831	0.
18831	0.
18832	2.0589e+006
18832	3.542e+006
18833	2.4559e+006
18833	8.6728e+005
18834	2.58e+006
18834	2.539e+006
18835	4.1119e+006
18835	2.1215e+006
18836	4.5672e+006
18836	4.0698e+006
18837	2.3839e+006
18837	3.7224e+006
18838	2.9641e+006
18838	4.393e+006
18839	3.8073e+006
18839	6.1964e+006
18840	5.1376e+006
18840	1.9579e+006
18841	2.2631e+006
18841	4.5375e+006
18842	4.3018e+006
18842	5.3208e+006
18843	2.985e+006
18843	2.2793e+006
18844	3.5033e+006
18844	3.5469e+006
18845	2.6466e+006
18845	1.1573e+006
18846	3.3948e+006
18846	5.5369e+006
18847	3.6095e+006
18847	5.7404e+006
18848	3.8988e+006
18848	1.8031e+006
18849	1.1131e+006
18849	2.0081e+006
18850	2.7057e+006
18850	2.4844e+006
18851	2.1283e+006
18851	3.8551e+006
18852	1.2732e+006
18852	1.0746e+006
18853	1.6701e+006
18853	3.495e+006
18854	6.2155e+006
18854	4.7968e+006
18855	4.627e+006
18855	4.7337e+006
18856	4.8722e+006
18856	5.0797e+006
18857	5.1672e+006
18857	5.781e+006
18858	2.1307e+006
18858	5.21e+006
18859	3.7055e+006
18859	2.3728e+006
18860	3.4652e+006
18860	3.341e+006
18861	1.6111e+006
18861	2.6021e+006
18862	1.9741e+006
18862	3.7541e+006
18863	5.4279e+006
18863	5.97e+006
18864	1.8299e+006
18864	3.3156e+006
18865	2.107e+006
18865	2.5934e+006
18866	3.605e+006
18866	3.5902e+006
18867	3.9252e+006
18867	3.1171e+006
18868	1.478e+006
18868	3.2349e+006
18869	2.6951e+006
18869	3.6368e+006
18870	3.1097e+006
18870	3.1093e+006
18871	1.5589e+006
18871	3.99e+006
18872	3.4427e+006
18872	2.8138e+006
18873	1.7807e+006
18873	1.755e+006
18874	1.5948e+006
18874	2.4849e+006
18875	1.6464e+006
18875	8.3475e+005
18876	2.6701e+006
18876	1.7183e+006
18877	1.8304e+006
18877	1.7055e+006
18878	3.0795e+006
18878	2.323e+006
18879	3.7622e+006
18879	3.3138e+006
18880	1.9737e+006
18880	1.4014e+006
18881	6.6489e+005
18881	1.4785e+006
18882	1.6693e+006
18882	3.2352e+006
18883	3.5728e+006
18883	1.2836e+006
18884	1.935e+006
18884	4.9976e+006
18885	3.4475e+006
18885	6.0427e+006
18886	2.9546e+006
18886	4.2354e+006
18887	4.5456e+006
18887	3.8903e+006
18888	3.0573e+006
18888	1.4025e+006
18889	3.8061e+006
18889	2.5989e+006
18890	5.3608e+006
18890	4.7047e+006
18891	4.9211e+006
18891	4.5588e+006
18892	1.3572e+006
18892	3.749e+006
18893	2.1223e+006
18893	3.1474e+006
18894	1.4836e+006
18894	1.5428e+006
18895	3.6102e+006
18895	3.1827e+006
18896	1.5116e+006
18896	1.7506e+006
18897	5.3884e+005
18897	1.0658e+006
18898	5.2862e+005
18898	9.4374e+005
18899	8.6567e+005
18899	9.4424e+005
18900	1.1536e+006
18900	1.254e+006
18901	0.
18901	0.
18902	0.
18902	0.
18903	0.
18903	0.
18904	0.
18904	0.
18905	0.
18905	0.
18906	0.
18906	0.
18907	1.7469e+006
18907	8.1152e+005
18908	2.9257e+006
18908	3.0608e+006
18909	0.
18909	0.
18910	5.0701e+005
18910	1.2835e+006
18911	1.5686e+006
18911	1.4645e+006
18912	3.601e+006
18912	1.8244e+006
18913	1.0072e+006
18913	2.9997e+006
18914	2.8128e+006
18914	9.8308e+005
18915	2.8083e+006
18915	1.3979e+006
18916	6.5437e+006
18916	2.3573e+006
18917	5.3576e+006
18917	2.8475e+006
18918	2.7886e+006
18918	2.6778e+006
18919	1.6701e+006
18919	2.4129e+006
18920	8.1541e+005
18920	2.5515e+006
18921	8.7717e+005
18921	7.7979e+005
18922	1.7721e+006
18922	2.8291e+006
18923	6.5817e+005
18923	9.0222e+005
18924	6.6576e+005
18924	2.3117e+006
18925	1.6892e+006
18925	6.3548e+005
18926	3.3963e+006
18926	2.3911e+006
18927	1.0285e+006
18927	1.0949e+006
18928	2.3359e+006
18928	3.9776e+005
18929	3.337e+006
18929	2.9003e+006
18930	3.6207e+006
18930	2.6974e+006
18931	3.3083e+006
18931	2.5117e+006
18932	3.0813e+006
18932	1.7285e+006
18933	2.9368e+006
18933	3.4123e+006
18934	3.0254e+006
18934	2.0588e+006
18935	2.6967e+006
18935	5.1418e+005
18936	1.9323e+006
18936	2.1186e+006
18937	2.3688e+006
18937	1.0791e+006
18938	2.5274e+006
18938	3.6352e+006
18939	1.5888e+006
18939	1.1702e+006
18940	7.4631e+005
18940	1.7258e+006
18941	6.1695e+005
18941	2.1215e+006
18942	1.8387e+006
18942	5.4655e+005
18943	1.2233e+006
18943	1.0464e+006
18944	2.3683e+006
18944	1.9194e+006
18945	3.5485e+006
18945	3.434e+006
18946	1.7357e+006
18946	1.345e+006
18947	2.4121e+006
18947	1.5973e+006
18948	1.6558e+006
18948	1.1727e+006
18949	1.4804e+006
18949	7.8143e+005
18950	7.8315e+005
18950	1.3773e+006
18951	6.5443e+005
18951	6.1758e+005
18952	0.
18952	0.
18953	0.
18953	0.
18954	0.
18954	0.
18955	0.
18955	0.
18956	0.
18956	0.
18957	0.
18957	0.
18958	0.
18958	0.
18959	0.
18959	0.
18960	0.
18960	0.
18961	0.
18961	0.
18962	0.
18962	0.
18963	0.
18963	0.
18964	2.8901e+005
18964	2.4379e+006
18965	4.2638e+006
18965	2.9507e+006
18966	2.5174e+006
18966	3.022e+006
18967	4.0662e+006
18967	4.2351e+006
18968	4.6824e+006
18968	3.0148e+006
18969	1.4067e+006
18969	3.9651e+006
18970	1.5575e+006
18970	3.2097e+006
18971	6.9754e+005
18971	1.8039e+006
18972	6.2284e+005
18972	1.2916e+006
18973	1.2842e+006
18973	1.3336e+006
18974	9.009e+005
18974	1.9645e+006
18975	2.9808e+006
18975	1.8308e+006
18976	1.5348e+006
18976	5.4864e+005
18977	8.6026e+005
18977	1.6551e+006
18978	1.0798e+006
18978	2.2789e+006
18979	8.6231e+005
18979	1.7727e+006
18980	1.4569e+006
18980	1.7823e+006
18981	2.7124e+006
18981	2.7229e+006
18982	4.9776e+006
18982	4.3238e+006
18983	3.3436e+006
18983	3.2808e+006
18984	2.8732e+006
18984	3.0394e+006
18985	2.3558e+006
18985	3.3645e+006
18986	3.4396e+006
18986	1.9824e+006
18987	2.1916e+006
18987	3.6439e+006
18988	1.7836e+006
18988	4.5057e+006
18989	3.2437e+006
18989	2.2895e+006
18990	2.9961e+006
18990	3.3982e+006
18991	1.289e+006
18991	1.4837e+006
18992	1.7464e+006
18992	1.3744e+006
18993	1.0295e+006
18993	2.4584e+006
18994	9.3142e+005
18994	3.2816e+006
18995	1.8161e+006
18995	9.218e+005
18996	4.4175e+006
18996	3.0256e+006
18997	2.9284e+006
18997	3.5653e+006
18998	2.4828e+006
18998	5.5857e+006
18999	1.6084e+006
18999	1.0728e+006
19000	4.6114e+006
19000	5.1909e+006
19001	1.823e+006
19001	3.8432e+006
19002	2.4923e+006
19002	2.335e+006
19003	2.3896e+006
19003	2.6002e+006
19004	2.0023e+006
19004	2.8306e+006
19005	1.4018e+006
19005	1.0652e+006
19006	3.4012e+006
19006	4.0877e+006
19007	8.7194e+005
19007	2.7828e+006
19008	3.0214e+006
19008	2.9191e+006
19009	2.7676e+006
19009	4.846e+006
19010	3.3478e+006
19010	4.3605e+006
19011	4.221e+006
19011	2.6196e+006
19012	2.7595e+006
19012	1.665e+006
19013	1.948e+006
19013	2.698e+006
19014	1.0769e+006
19014	2.2141e+006
19015	1.5483e+006
19015	2.7383e+006
19016	3.008e+006
19016	1.3668e+006
19017	2.6896e+006
19017	2.2297e+006
19018	1.9751e+006
19018	2.372e+006
19019	1.6821e+006
19019	3.3725e+006
19020	1.4241e+006
19020	1.903e+006
19021	3.0079e+006
19021	1.4955e+006
19022	4.3662e+006
19022	4.2273e+006
19023	2.5251e+006
19023	2.7816e+006
19024	2.1853e+006
19024	1.8281e+006
19025	3.278e+006
19025	4.2195e+006
19026	3.8742e+006
19026	4.5005e+006
19027	1.9135e+006
19027	2.3116e+006
19028	2.7524e+006
19028	5.1149e+006
19029	2.8362e+006
19029	2.546e+006
19030	2.2347e+006
19030	3.2251e+006
19031	4.0682e+006
19031	3.3419e+006
19032	2.3368e+006
19032	1.6235e+006
19033	4.2251e+006
19033	2.4379e+006
19034	2.3546e+006
19034	8.0581e+005
19035	1.3092e+006
19035	1.942e+006
19036	1.0548e+006
19036	1.466e+006
19037	1.4312e+006
19037	2.508e+006
19038	2.3205e+006
19038	1.2112e+006
19039	2.5247e+006
19039	1.3187e+006
19040	1.5083e+006
19040	4.6973e+005
19041	8.0223e+005
19041	5.0438e+005
19042	1.8829e+006
19042	2.6701e+006
19043	1.9427e+006
19043	1.0283e+006
19044	2.4133e+006
19044	1.2073e+006
19045	0.
19045	0.
19046	0.
19046	0.
19047	0.
19047	0.
19048	0.
19048	0.
19049	0.
19049	0.
19050	0.
19050	0.
19051	0.
19051	0.
19052	0.
19052	0.
19053	0.
19053	0.
19054	0.
19054	0.
19055	0.
19055	0.
19056	0.
19056	0.
19057	0.
19057	0.
19058	0.
19058	0.
19059	7.222e+005
19059	1.8976e+006
19060	0.
19060	0.
19061	2.7874e+006
19061	4.656e+006
19062	1.5837e+006
19062	1.0502e+006
19063	3.6597e+006
19063	3.6171e+006
19064	4.7457e+006
19064	3.3403e+006
19065	4.0773e+006
19065	2.8969e+006
19066	3.1941e+006
19066	3.0861e+006
19067	4.7008e+006
19067	4.0215e+006
19068	2.2483e+006
19068	1.2382e+006
19069	4.3597e+006
19069	6.2124e+006
19070	5.9263e+006
19070	6.3436e+006
19071	1.5403e+006
19071	1.1945e+006
19072	1.7043e+006
19072	2.1877e+006
19073	1.9481e+006
19073	2.5146e+006
19074	4.4049e+006
19074	5.7649e+006
19075	2.5791e+006
19075	2.5054e+006
19076	1.4428e+006
19076	1.0082e+006
19077	4.2711e+006
19077	2.2709e+006
19078	1.7758e+006
19078	4.5487e+006
19079	5.5647e+006
19079	4.9507e+006
19080	3.2664e+006
19080	3.0327e+006
19081	3.0998e+006
19081	5.6664e+006
19082	5.412e+006
19082	3.2749e+006
19083	4.4081e+006
19083	4.3083e+006
19084	2.1632e+006
19084	1.8067e+006
19085	2.8362e+006
19085	2.2878e+006
19086	6.7296e+005
19086	2.5814e+006
19087	1.7438e+006
19087	1.4922e+006
19088	2.8446e+006
19088	1.8623e+006
19089	6.9909e+006
19089	5.5431e+006
19090	2.9616e+006
19090	3.0279e+006
19091	6.3386e+006
19091	4.5224e+006
19092	2.9276e+006
19092	4.1233e+006
19093	4.12e+006
19093	3.137e+006
19094	5.6695e+006
19094	5.4268e+006
19095	4.9225e+006
19095	4.392e+006
19096	4.6228e+006
19096	3.7174e+006
19097	1.4595e+006
19097	1.2301e+006
19098	3.7325e+006
19098	3.0148e+006
19099	3.5682e+006
19099	4.3152e+006
19100	9.9879e+005
19100	1.5528e+006
19101	2.6913e+006
19101	2.3519e+006
19102	1.9958e+006
19102	1.1353e+006
19103	5.4292e+006
19103	4.5949e+006
19104	2.1617e+006
19104	1.194e+006
19105	2.9044e+006
19105	3.2781e+006
19106	2.1871e+006
19106	4.9504e+006
19107	1.066e+006
19107	2.1908e+006
19108	5.9075e+005
19108	1.9943e+006
19109	2.7464e+006
19109	3.3887e+006
19110	2.9906e+006
19110	1.0635e+006
19111	1.078e+006
19111	2.4811e+006
19112	8.0171e+005
19112	2.1665e+006
19113	0.
19113	0.
19114	0.
19114	0.
19115	0.
19115	0.
19116	0.
19116	0.
19117	0.
19117	0.
19118	0.
19118	0.
19119	0.
19119	0.
19120	5.1808e+005
19120	1.2414e+006
19121	1.0875e+006
19121	1.5732e+006
19122	1.0983e+006
19122	1.0449e+006
19123	2.7346e+006
19123	5.5008e+005
19124	1.6517e+006
19124	2.1906e+006
19125	2.2393e+006
19125	1.2642e+006
19126	1.9698e+006
19126	2.2901e+006
19127	3.1273e+006
19127	1.9609e+006
19128	1.8696e+006
19128	3.4917e+006
19129	3.5717e+006
19129	2.4495e+006
19130	1.3728e+006
19130	1.6117e+006
19131	1.847e+006
19131	1.5568e+006
19132	3.3507e+006
19132	2.9872e+006
19133	3.3812e+006
19133	3.3101e+006
19134	3.4084e+006
19134	2.449e+006
19135	1.724e+006
19135	1.7368e+006
19136	3.0827e+006
19136	2.5989e+006
19137	1.2236e+006
19137	1.7213e+006
19138	1.2204e+006
19138	8.0842e+005
19139	1.352e+006
19139	1.8701e+006
19140	2.0886e+006
19140	3.3157e+006
19141	2.1729e+006
19141	2.3635e+006
19142	1.3774e+006
19142	3.1769e+006
19143	3.8773e+005
19143	1.7789e+006
19144	1.3243e+006
19144	1.5963e+006
19145	2.1949e+006
19145	2.287e+006
19146	2.1668e+006
19146	4.3745e+005
19147	1.1923e+006
19147	1.7675e+006
19148	1.9447e+006
19148	2.9039e+006
19149	2.2026e+006
19149	1.9407e+006
19150	2.2788e+006
19150	1.9802e+006
19151	1.2707e+006
19151	1.2557e+006
19152	1.7323e+006
19152	1.3298e+006
19153	1.3417e+006
19153	9.4582e+005
19154	2.0801e+006
19154	1.2799e+006
19155	1.1324e+006
19155	6.3186e+005
19156	2.0144e+006
19156	1.8324e+006
19157	1.7378e+006
19157	1.504e+006
19158	1.1905e+006
19158	7.7982e+005
19159	0.
19159	0.
19160	0.
19160	0.
19161	0.
19161	0.
19162	0.
19162	0.
19163	0.
19163	0.
19164	0.
19164	0.
19165	0.
19165	0.
19166	0.
19166	0.
19167	0.
19167	0.
19168	0.
19168	0.
19169	0.
19169	0.
19170	0.
19170	0.
19171	0.
19171	0.
19172	0.
19172	0.
19173	0.
19173	0.
19174	0.
19174	0.
19175	0.
19175	0.
19176	0.
19176	0.
19177	0.
19177	0.
19178	0.
19178	0.
19179	0.
19179	0.
19180	1524.
19180	11541
19181	0.
19181	0.
19182	0.
19182	0.
19183	2.0337e+006
19183	1.1132e+006
19184	0.
19184	0.
19185	0.
19185	0.
19186	1.4699e+006
19186	1.4495e+006
19187	1.8095e+006
19187	2.4041e+006
19188	0.
19188	0.
19189	1.9414e+006
19189	7.8716e+005
19190	3.4493e+006
19190	2.526e+006
19191	2.797e+006
19191	3.7645e+006
19192	2.3033e+006
19192	1.8324e+006
19193	4.3388e+006
19193	1.9786e+006
19194	5.7752e+006
19194	2.6689e+006
19195	1.5933e+006
19195	3.5563e+006
19196	3.7673e+006
19196	2.6711e+006
19197	4.8693e+005
19197	3.0594e+006
19198	1.5027e+006
19198	5.0874e+006
19199	1.685e+006
19199	1.8476e+006
19200	2.0131e+006
19200	5.676e+005
19201	1.2041e+006
19201	2.4926e+006
19202	1.2984e+006
19202	3.3983e+006
19203	1.7894e+006
19203	1.0548e+006
19204	2.3445e+006
19204	2.036e+006
19205	3.1348e+006
19205	5.8712e+006
19206	3.3421e+006
19206	4.961e+006
19207	3.0636e+006
19207	1.2688e+006
19208	2.5339e+006
19208	4.5376e+006
19209	2.8688e+006
19209	1.9992e+006
19210	2.1105e+006
19210	2.5856e+006
19211	2.497e+006
19211	1.3555e+006
19212	1.6259e+006
19212	1.3213e+006
19213	1.2965e+006
19213	7.971e+005
19214	1.1585e+006
19214	1.417e+006
19215	6.3461e+005
19215	7.7717e+005
19216	3.5517e+006
19216	3.7002e+006
19217	3.9367e+006
19217	2.9043e+006
19218	5.1927e+006
19218	1.8173e+006
19219	3.837e+006
19219	2.777e+006
19220	1.1235e+006
19220	3.407e+006
19221	4.0538e+006
19221	2.4369e+006
19222	1.531e+006
19222	8.3944e+005
19223	1.7686e+006
19223	2.1694e+006
19224	2.5677e+006
19224	4.3587e+005
19225	9.2533e+005
19225	1.0354e+006
19226	3.1895e+006
19226	2.7311e+006
19227	1.6938e+006
19227	3.7148e+006
19228	1.9086e+006
19228	2.8254e+006
19229	2.3332e+006
19229	2.4107e+006
19230	2.1286e+006
19230	3.3672e+006
19231	8.2096e+005
19231	2.1808e+006
19232	2.4857e+006
19232	1.4487e+006
19233	2.9058e+006
19233	3.3156e+006
19234	1.5542e+006
19234	2.0456e+006
19235	1.e+006
19235	1.6452e+006
19236	1.3442e+006
19236	1.4823e+006
19237	1.9001e+006
19237	2.2346e+006
19238	2.0299e+006
19238	2.1308e+006
19239	2.9728e+006
19239	3.8252e+005
19240	3.7243e+006
19240	1.1964e+006
19241	2.8201e+006
19241	3.2137e+006
19242	6.4584e+005
19242	3.6819e+005
19243	1.7391e+006
19243	4.84e+005
19244	4.276e+006
19244	3.5156e+006
19245	5.8505e+006
19245	4.157e+006
19246	6.0946e+006
19246	4.8291e+006
19247	6.1416e+006
19247	2.4341e+006
19248	1.7377e+006
19248	2.9158e+006
19249	2.3921e+006
19249	3.0523e+006
19250	1.4331e+006
19250	1.2457e+006
19251	2.6443e+006
19251	2.9078e+006
19252	2.1806e+006
19252	1.8363e+006
19253	9.6794e+005
19253	1.3877e+006
19254	1.4668e+006
19254	7.2603e+005
19255	1.7486e+006
19255	9.1573e+005
19256	1.572e+006
19256	1.6245e+006
19257	2.8302e+005
19257	1.2855e+006
19258	1.5872e+006
19258	3.8592e+005
19259	5.8789e+005
19259	31105
19260	1.0263e+006
19260	9.8338e+005
19261	1.2222e+006
19261	7.9403e+005
19262	2.0685e+006
19262	1.8111e+006
19263	1.1707e+006
19263	9.4425e+005
19264	1.2272e+006
19264	5.8489e+005
19265	1.1981e+006
19265	9.4735e+005
19266	0.
19266	0.
19267	0.
19267	0.
19268	0.
19268	0.
19269	0.
19269	0.
19270	0.
19270	0.
19271	0.
19271	0.
19272	0.
19272	0.
19273	0.
19273	0.
19274	0.
19274	0.
19275	2.4886e+006
19275	2.7387e+006
19276	2.8665e+006
19276	2.8097e+006
19277	2.3387e+006
19277	1.5932e+006
19278	7.0387e+005
19278	1.664e+006
19279	0.
19279	0.
19280	1.1554e+006
19280	8.4001e+005
19281	1.3528e+006
19281	3.9583e+006
19282	2.7142e+006
19282	3.8936e+006
19283	3.0128e+006
19283	4.3545e+006
19284	2.8872e+006
19284	2.9421e+006
19285	1.5362e+006
19285	4.0974e+006
19286	2.2218e+006
19286	2.898e+006
19287	4.6353e+006
19287	2.565e+006
19288	5.4204e+006
19288	5.0654e+006
19289	4.2891e+006
19289	4.0277e+006
19290	2.877e+006
19290	4.5799e+006
19291	2.2648e+006
19291	3.5542e+006
19292	3.5292e+006
19292	4.0417e+006
19293	4.4276e+006
19293	5.8158e+006
19294	4.9873e+006
19294	5.974e+006
19295	3.6047e+006
19295	2.1358e+006
19296	1.9495e+006
19296	4.0447e+006
19297	1.6025e+006
19297	1.186e+006
19298	2.2189e+006
19298	2.5445e+006
19299	4.0232e+006
19299	4.3549e+006
19300	4.2423e+006
19300	4.6568e+006
19301	1.6903e+006
19301	2.4967e+006
19302	1.2494e+006
19302	1.5262e+006
19303	1.6668e+006
19303	4.2672e+006
19304	4.7087e+006
19304	5.7765e+006
19305	4.8628e+006
19305	3.4843e+006
19306	7.0016e+006
19306	2.9549e+006
19307	4.3522e+006
19307	5.8645e+006
19308	5.807e+006
19308	4.7358e+006
19309	4.706e+006
19309	2.5531e+006
19310	5.374e+006
19310	2.5576e+006
19311	3.6394e+006
19311	2.8089e+006
19312	4.223e+006
19312	3.759e+006
19313	1.8482e+006
19313	1.9602e+006
19314	5.3304e+006
19314	3.0823e+006
19315	7.8385e+005
19315	1.6911e+006
19316	2.816e+006
19316	3.3853e+006
19317	3.4184e+006
19317	5.1969e+006
19318	5.1814e+006
19318	4.3337e+006
19319	6.0585e+006
19319	4.1842e+006
19320	5.9361e+006
19320	4.5293e+006
19321	5.5758e+006
19321	5.4539e+006
19322	4.28e+006
19322	5.3911e+006
19323	4.2238e+006
19323	4.7625e+006
19324	2.129e+006
19324	3.2006e+006
19325	2.2653e+006
19325	3.6272e+006
19326	3.3025e+006
19326	3.7158e+006
19327	2.5151e+006
19327	1.4274e+006
19328	1.4897e+006
19328	1.1361e+006
19329	3.5246e+006
19329	5.3638e+006
19330	5.6213e+006
19330	4.0928e+006
19331	4.6866e+006
19331	2.0381e+006
19332	4.1937e+006
19332	2.9058e+006
19333	4.5147e+006
19333	3.7149e+006
19334	2.4225e+006
19334	1.2332e+006
19335	3.9327e+006
19335	3.3175e+006
19336	1.8206e+006
19336	1.3945e+006
19337	2.8414e+006
19337	1.6343e+006
19338	2.4842e+006
19338	2.4917e+006
19339	5.1924e+005
19339	1.7523e+006
19340	8.8293e+005
19340	1.038e+006
19341	1.1415e+006
19341	1.4674e+006
19342	1.9533e+006
19342	1.1267e+006
19343	1.7304e+006
19343	1.2898e+006
19344	1.0545e+006
19344	1.1146e+006
19345	0.
19345	0.
19346	0.
19346	0.
19347	0.
19347	0.
19348	0.
19348	0.
19349	0.
19349	0.
19350	0.
19350	0.
19351	0.
19351	0.
19352	0.
19352	0.
19353	0.
19353	0.
19354	0.
19354	0.
19355	0.
19355	0.
19356	0.
19356	0.
19357	0.
19357	0.
19358	0.
19358	0.
19359	0.
19359	0.
19360	0.
19360	0.
19361	0.
19361	0.
19362	0.
19362	0.
19363	0.
19363	0.
19364	3.0149e+006
19364	1.4035e+006
19365	1.16e+006
19365	1.973e+006
19366	2.1938e+006
19366	1.31e+006
19367	3.8103e+006
19367	2.0913e+006
19368	1.7575e+006
19368	2.3155e+006
19369	2.2084e+006
19369	1.9188e+006
19370	2.0856e+006
19370	3.4336e+006
19371	2.4589e+006
19371	4.2198e+006
19372	2.9439e+006
19372	3.9285e+006
19373	2.1517e+006
19373	1.79e+006
19374	2.1687e+006
19374	3.6428e+006
19375	1.7211e+006
19375	1.365e+006
19376	1.2902e+006
19376	1.6727e+006
19377	2.0413e+006
19377	2.1489e+006
19378	1.121e+006
19378	7.8842e+005
19379	1.7274e+006
19379	2.5358e+006
19380	1.1401e+006
19380	1.4497e+006
19381	1.8277e+006
19381	1.9426e+006
19382	8.3288e+005
19382	2.5854e+006
19383	3.7879e+006
19383	2.5953e+006
19384	1.6991e+006
19384	1.2709e+006
19385	3.0181e+006
19385	2.8068e+006
19386	4.011e+006
19386	4.4613e+006
19387	2.7927e+006
19387	2.7082e+006
19388	1.6521e+006
19388	2.3097e+006
19389	1.0406e+006
19389	1.4565e+006
19390	2.2476e+006
19390	1.7593e+006
19391	3.4104e+006
19391	3.8705e+006
19392	8.7895e+005
19392	1.6846e+006
19393	2.7546e+006
19393	3.9885e+006
19394	3.2835e+006
19394	2.6941e+006
19395	1.3483e+006
19395	1.8457e+006
19396	2.9077e+006
19396	2.9357e+006
19397	4.2016e+006
19397	3.8248e+006
19398	5.1629e+006
19398	2.4815e+006
19399	3.4444e+006
19399	3.2388e+006
19400	2.225e+006
19400	1.0904e+006
19401	1.0144e+006
19401	1.6858e+006
19402	1.9055e+006
19402	2.097e+006
19403	2.057e+006
19403	6.952e+005
19404	8.2017e+005
19404	1.3463e+006
19405	2.7502e+006
19405	4.4856e+006
19406	2.3376e+006
19406	3.249e+006
19407	2.3525e+006
19407	1.0169e+006
19408	1.4738e+006
19408	9.3506e+005
19409	2.4011e+006
19409	1.4283e+006
19410	2.546e+006
19410	3.7671e+006
19411	3.4195e+006
19411	2.66e+006
19412	4.4801e+006
19412	2.6807e+006
19413	1.7358e+006
19413	2.7045e+006
19414	2.296e+006
19414	1.5422e+006
19415	1.6345e+006
19415	1.0772e+006
19416	2.2421e+006
19416	1.7467e+006
19417	2.2806e+006
19417	5.2031e+005
19418	1.4503e+006
19418	1.7121e+006
19419	5.5597e+005
19419	1.6947e+006
19420	8.6376e+005
19420	1.3842e+006
19421	8.6033e+005
19421	4.3289e+005
19422	1.2523e+006
19422	1.1436e+006
19423	1.2721e+006
19423	1.0912e+006
19424	0.
19424	0.
19425	0.
19425	0.
19426	0.
19426	0.
19427	0.
19427	0.
19428	0.
19428	0.
19429	0.
19429	0.
19430	0.
19430	0.
19431	0.
19431	0.
19432	0.
19432	0.
19433	0.
19433	0.
19434	0.
19434	0.
19435	0.
19435	0.
19436	8.7801e+005
19436	1.3617e+005
19437	1.4941e+006
19437	6.5669e+005
19438	4.844e+006
19438	4.2028e+006
19439	3.8318e+006
19439	2.6485e+006
19440	2.4211e+006
19440	2.9221e+006
19441	4.9318e+006
19441	2.728e+006
19442	2.679e+006
19442	3.3238e+006
19443	1.1419e+006
19443	1.9329e+006
19444	3.7648e+005
19444	1.682e+006
19445	2.5079e+006
19445	2.7723e+006
19446	1.1433e+006
19446	3.1734e+006
19447	4.3509e+006
19447	1.7166e+006
19448	3.8138e+006
19448	2.7215e+006
19449	3.0011e+006
19449	2.0082e+006
19450	2.911e+006
19450	2.0012e+006
19451	2.2053e+006
19451	2.6412e+006
19452	5.253e+005
19452	1.551e+006
19453	1.6849e+006
19453	2.1151e+006
19454	2.5695e+006
19454	2.8288e+006
19455	1.6433e+006
19455	2.2437e+006
19456	3.8785e+006
19456	1.9139e+006
19457	3.8213e+006
19457	2.4994e+006
19458	3.911e+006
19458	3.239e+006
19459	3.5458e+006
19459	3.9735e+006
19460	2.6417e+006
19460	1.991e+006
19461	2.7077e+006
19461	2.6036e+006
19462	3.4963e+006
19462	4.3702e+006
19463	1.0791e+006
19463	1.2846e+006
19464	1.0187e+006
19464	7.532e+005
19465	1.1845e+006
19465	2.9403e+006
19466	2.9493e+006
19466	1.2524e+006
19467	2.0752e+006
19467	2.3253e+005
19468	1.6375e+006
19468	7.4775e+005
19469	2.0964e+006
19469	3.3201e+006
19470	1.6917e+006
19470	1.1235e+006
19471	7.7928e+005
19471	1.6995e+006
19472	3.5041e+006
19472	2.771e+006
19473	3.4612e+006
19473	4.639e+006
19474	2.6124e+006
19474	4.5236e+006
19475	5.6406e+006
19475	3.852e+006
19476	2.3984e+006
19476	3.2873e+006
19477	2.4888e+006
19477	2.2211e+006
19478	2.7669e+006
19478	3.6151e+006
19479	4.3877e+006
19479	3.8809e+006
19480	1.8774e+006
19480	6.0847e+005
19481	1.2664e+006
19481	1.1815e+006
19482	1.8949e+006
19482	2.1141e+006
19483	1.044e+006
19483	1.751e+006
19484	3.3657e+006
19484	7.6992e+005
19485	2.3569e+006
19485	1.6128e+006
19486	2.589e+006
19486	3.4199e+006
19487	2.7934e+006
19487	2.5516e+006
19488	2.7651e+006
19488	2.0088e+006
19489	2.7312e+006
19489	1.3004e+006
19490	4.4175e+006
19490	2.1573e+006
19491	1.4835e+006
19491	3.2409e+006
19492	2.9938e+006
19492	1.2911e+006
19493	3.0923e+006
19493	1.8777e+006
19494	4.1068e+006
19494	3.8589e+006
19495	1.6708e+006
19495	3.0968e+006
19496	1.7881e+006
19496	2.3225e+006
19497	2.3565e+006
19497	2.2497e+006
19498	2.1105e+006
19498	1.6456e+006
19499	1.7315e+006
19499	9.5927e+005
19500	1.3583e+006
19500	2.16e+006
19501	1.1807e+006
19501	1.998e+006
19502	7.9844e+005
19502	1.876e+006
19503	1.7391e+006
19503	1.0807e+006
19504	1.0133e+006
19504	9.443e+005
19505	6.3709e+005
19505	8.1519e+005
19506	1.5721e+006
19506	1.0582e+006
19507	1.8991e+006
19507	2.0751e+006
19508	5.7649e+005
19508	2.3375e+006
19509	1.3391e+006
19509	1.9656e+006
19510	1.1906e+006
19510	1.2331e+006
19511	1.3622e+006
19511	1.7268e+006
19512	0.
19512	0.
19513	0.
19513	0.
19514	0.
19514	0.
19515	0.
19515	0.
19516	0.
19516	0.
19517	0.
19517	0.
19518	0.
19518	0.
19519	0.
19519	0.
19520	0.
19520	0.
19521	2.2215e+006
19521	1.6384e+006
19522	3.1631e+006
19522	3.0725e+006
19523	4.606e+006
19523	5.0514e+006
19524	3.1609e+006
19524	2.3513e+006
19525	4.2818e+006
19525	3.1333e+006
19526	1.7571e+006
19526	2.6526e+006
19527	4.7858e+006
19527	3.4284e+006
19528	4.4437e+006
19528	1.6199e+006
19529	5.008e+006
19529	3.7579e+006
19530	5.5445e+006
19530	2.6145e+006
19531	4.4563e+006
19531	4.3638e+006
19532	4.7056e+006
19532	2.9083e+006
19533	4.284e+006
19533	3.3549e+006
19534	4.5569e+006
19534	3.377e+006
19535	3.1326e+006
19535	3.3706e+006
19536	2.7483e+006
19536	1.535e+006
19537	1.8926e+006
19537	1.5953e+006
19538	3.3332e+006
19538	2.0002e+006
19539	2.346e+006
19539	1.5065e+006
19540	1.495e+006
19540	1.2525e+006
19541	1.744e+006
19541	2.7554e+006
19542	5.0052e+006
19542	4.569e+006
19543	2.2841e+006
19543	5.815e+006
19544	3.3885e+006
19544	4.0909e+006
19545	3.1703e+006
19545	3.0187e+006
19546	2.2486e+006
19546	2.7935e+006
19547	3.9387e+006
19547	5.0271e+006
19548	3.765e+006
19548	5.173e+006
19549	4.7268e+006
19549	3.9641e+006
19550	4.0457e+006
19550	3.9051e+006
19551	2.6788e+006
19551	3.1718e+006
19552	2.3685e+006
19552	2.6383e+006
19553	4.963e+006
19553	4.6878e+006
19554	1.5277e+006
19554	4.3554e+006
19555	5.9198e+006
19555	2.9087e+006
19556	3.3955e+006
19556	3.6657e+006
19557	2.5851e+006
19557	3.7867e+006
19558	1.6678e+006
19558	2.1376e+006
19559	3.617e+006
19559	3.9597e+006
19560	2.2694e+006
19560	4.2921e+006
19561	5.324e+006
19561	3.6895e+006
19562	5.4217e+006
19562	4.7883e+006
19563	9.4853e+005
19563	2.7693e+006
19564	9.9567e+005
19564	1.3036e+006
19565	2.3184e+006
19565	1.3728e+006
19566	1.8101e+006
19566	1.5995e+006
19567	3.3629e+006
19567	2.5903e+006
19568	2.5616e+006
19568	3.9534e+006
19569	8.2725e+005
19569	2.0413e+006
19570	2.5148e+006
19570	1.6357e+006
19571	0.
19571	0.
19572	0.
19572	0.
19573	0.
19573	0.
19574	0.
19574	0.
19575	0.
19575	0.
19576	0.
19576	0.
19577	0.
19577	0.
19578	0.
19578	0.
19579	0.
19579	0.
19580	1.3044e+006
19580	2.5137e+006
19581	2.302e+006
19581	1.7859e+006
19582	1.3162e+006
19582	2.5343e+006
19583	3.4581e+006
19583	2.8606e+006
19584	2.4521e+006
19584	8.1693e+005
19585	9.3282e+005
19585	8.559e+005
19586	3.0908e+006
19586	1.9036e+006
19587	9.796e+005
19587	7.7256e+005
19588	9.5576e+005
19588	2.1452e+006
19589	1.509e+006
19589	1.1781e+006
19590	2.4862e+006
19590	4.0147e+006
19591	2.7385e+006
19591	1.5051e+006
19592	3.4944e+006
19592	6.0434e+005
19593	3.2217e+006
19593	6.7432e+006
19594	1.1857e+006
19594	2.5354e+006
19595	5.1685e+005
19595	6.9749e+005
19596	1.6114e+006
19596	3.372e+006
19597	1.351e+006
19597	1.1247e+006
19598	3.754e+006
19598	4.4352e+006
19599	4.9452e+005
19599	2.8896e+006
19600	2.1133e+006
19600	1.9965e+006
19601	2.2264e+006
19601	1.3531e+006
19602	1.2412e+006
19602	6.5369e+005
19603	9.0231e+005
19603	1.0029e+006
19604	2.2499e+006
19604	2.7541e+006
19605	1.932e+006
19605	3.2237e+006
19606	1.8491e+006
19606	1.5436e+006
19607	3.1025e+006
19607	1.5361e+006
19608	3.2324e+006
19608	1.7272e+006
19609	2.1723e+006
19609	2.0395e+006
19610	1.4519e+006
19610	5.297e+005
19611	3.1518e+006
19611	2.8469e+006
19612	9.6126e+005
19612	6.1195e+005
19613	9.7571e+005
19613	2.2445e+006
19614	1.7554e+006
19614	1.3444e+006
19615	2.7255e+006
19615	1.6124e+006
19616	1.9371e+006
19616	3.0336e+006
19617	1.2624e+006
19617	1.2007e+006
19618	1.0937e+006
19618	7.8972e+005
19619	1.6313e+006
19619	1.4306e+006
19620	1.3495e+006
19620	1.7263e+006
19621	1.1907e+006
19621	2.2369e+006
19622	1.7155e+006
19622	1.3007e+006
19623	1.0968e+006
19623	2.14e+006
19624	0.
19624	0.
19625	0.
19625	0.
19626	0.
19626	0.
19627	0.
19627	0.
19628	0.
19628	0.
19629	0.
19629	0.
19630	0.
19630	0.
19631	0.
19631	0.
19632	0.
19632	0.
19633	0.
19633	0.
19634	0.
19634	0.
19635	0.
19635	0.
19636	0.
19636	0.
19637	0.
19637	0.
19638	0.
19638	0.
19639	1.9329e+006
19639	2.7162e+006
19640	2.217e+006
19640	4.3338e+006
19641	3.3322e+006
19641	3.1454e+006
19642	2.4821e+006
19642	2.5998e+006
19643	4.5494e+006
19643	2.8773e+006
19644	2.3583e+006
19644	3.7416e+006
19645	2.6897e+006
19645	3.2599e+006
19646	1.8449e+006
19646	3.453e+006
19647	2.363e+006
19647	1.962e+006
19648	2.1901e+006
19648	3.3031e+006
19649	2.9049e+006
19649	2.9757e+006
19650	2.2345e+006
19650	1.0507e+006
19651	1.6121e+006
19651	8.3112e+005
19652	3.6859e+006
19652	4.3316e+006
19653	1.6819e+006
19653	1.8532e+006
19654	1.7042e+006
19654	1.9803e+006
19655	2.7888e+006
19655	2.9301e+006
19656	3.5452e+006
19656	1.1955e+006
19657	2.2502e+006
19657	2.0209e+006
19658	2.7771e+006
19658	3.3829e+006
19659	3.9799e+006
19659	5.0522e+006
19660	1.6679e+006
19660	3.3001e+006
19661	2.1186e+006
19661	2.4864e+006
19662	3.4547e+006
19662	2.4689e+006
19663	9.7216e+005
19663	5.3563e+005
19664	3.6863e+006
19664	4.2397e+006
19665	8.6962e+005
19665	2.7657e+006
19666	2.6465e+006
19666	1.2202e+006
19667	9.0536e+005
19667	2.9921e+006
19668	2.2551e+006
19668	1.3944e+006
19669	2.1786e+006
19669	2.8903e+006
19670	2.681e+006
19670	3.4e+006
19671	2.4359e+006
19671	5.2349e+006
19672	4.8066e+006
19672	5.0711e+006
19673	8.7673e+005
19673	2.0035e+006
19674	9.0189e+005
19674	1.8126e+006
19675	3.6644e+006
19675	2.6445e+006
19676	2.6144e+006
19676	1.8578e+006
19677	1.8855e+006
19677	2.5072e+006
19678	8.3983e+005
19678	1.5771e+006
19679	1.536e+006
19679	1.7439e+006
19680	2.0942e+006
19680	8.3156e+005
19681	2.1755e+006
19681	2.4369e+006
19682	2.7571e+006
19682	2.9261e+006
19683	2.5687e+006
19683	3.4871e+006
19684	1.3454e+006
19684	1.3231e+006
19685	1.8293e+006
19685	1.5728e+006
19686	2.1403e+006
19686	1.7143e+006
19687	2.7015e+006
19687	1.7857e+006
19688	2.433e+006
19688	2.4756e+006
19689	1.9192e+006
19689	1.9458e+006
19690	1.8053e+006
19690	5.3335e+005
19691	3.9595e+006
19691	2.3566e+006
19692	1.6904e+006
19692	1.4058e+006
19693	4.3727e+005
19693	1.1262e+006
19694	1.8934e+006
19694	2.1029e+006
19695	2.6601e+006
19695	2.5309e+006
19696	1.446e+006
19696	1.452e+006
19697	9.3616e+005
19697	1.691e+006
19698	1.4719e+006
19698	8.7611e+005
19699	1.225e+006
19699	1.5195e+006
19700	1.9034e+006
19700	1.1031e+006
19701	1.3004e+006
19701	5.8172e+005
19702	1.0208e+006
19702	1.0109e+006
19703	0.
19703	0.
19704	0.
19704	0.
19705	0.
19705	0.
19706	0.
19706	0.
19707	0.
19707	0.
19708	0.
19708	0.
19709	0.
19709	0.
19710	0.
19710	0.
19711	0.
19711	0.
19712	0.
19712	0.
19713	0.
19713	0.
19714	0.
19714	0.
19715	3.4423e+006
19715	1.4734e+006
19716	3.5902e+005
19716	1.0001e+006
19717	2.5753e+006
19717	2.1046e+006
19718	2.4462e+006
19718	2.822e+006
19719	1.5299e+006
19719	3.6453e+006
19720	7.1234e+006
19720	6.4608e+006
19721	2.8402e+006
19721	3.2717e+006
19722	3.0658e+006
19722	3.7864e+006
19723	2.2632e+006
19723	4.8792e+006
19724	2.9907e+006
19724	3.3451e+006
19725	4.2147e+006
19725	4.2328e+006
19726	1.7845e+006
19726	1.5935e+006
19727	3.6075e+006
19727	3.6738e+006
19728	3.4168e+006
19728	6.4281e+006
19729	3.4223e+006
19729	2.4969e+006
19730	2.2485e+006
19730	3.0068e+006
19731	5.2837e+006
19731	5.311e+006
19732	1.9498e+006
19732	4.4235e+006
19733	5.8456e+006
19733	4.9712e+006
19734	3.8035e+006
19734	3.9116e+006
19735	4.0344e+006
19735	1.985e+006
19736	1.2694e+006
19736	1.2273e+006
19737	3.4529e+006
19737	2.3159e+006
19738	3.0489e+006
19738	2.7894e+006
19739	3.6559e+006
19739	3.2151e+006
19740	2.8453e+006
19740	2.6071e+006
19741	3.7927e+006
19741	2.12e+006
19742	4.9548e+006
19742	5.4275e+006
19743	6.7351e+005
19743	9.443e+005
19744	2.3074e+006
19744	2.9427e+006
19745	4.7585e+006
19745	4.4833e+006
19746	2.3423e+006
19746	3.7454e+006
19747	3.0669e+006
19747	2.5897e+006
19748	3.8937e+006
19748	4.4904e+006
19749	2.6825e+006
19749	2.8128e+006
19750	3.4629e+006
19750	2.9878e+006
19751	2.8926e+006
19751	2.629e+006
19752	3.3832e+006
19752	2.4729e+006
19753	7.8269e+005
19753	1.8593e+006
19754	1.0979e+006
19754	9.4347e+005
19755	1.1849e+006
19755	1.247e+006
19756	1.1293e+006
19756	1.0606e+006
19757	2.093e+006
19757	1.4155e+006
19758	1.8698e+006
19758	1.1914e+006
19759	7.0015e+005
19759	8.4717e+005
19760	4.4973e+005
19760	5.0368e+005
19761	1.9471e+006
19761	1.5944e+006
19762	0.
19762	0.
19763	0.
19763	0.
19764	0.
19764	0.
19765	0.
19765	0.
19766	0.
19766	0.
19767	0.
19767	0.
19768	0.
19768	0.
19769	0.
19769	0.
19770	0.
19770	0.
19771	0.
19771	0.
19772	1.9326e+006
19772	2.526e+006
19773	2.2186e+006
19773	2.2482e+006
19774	1.4525e+006
19774	1.8653e+006
19775	1.2513e+006
19775	1.9513e+006
19776	0.
19776	0.
19777	0.
19777	0.
19778	0.
19778	0.
19779	0.
19779	0.
19780	1.6331e+006
19780	2.7949e+006
19781	7.5736e+005
19781	3.7344e+005
19782	3.9026e+006
19782	3.1251e+006
19783	3.4094e+006
19783	3.3335e+006
19784	2.091e+006
19784	1.2965e+006
19785	1.3145e+006
19785	1.6537e+006
19786	2.6314e+006
19786	2.4069e+006
19787	2.3537e+006
19787	2.7553e+006
19788	2.504e+006
19788	1.9744e+006
19789	2.0723e+006
19789	2.5239e+006
19790	2.4794e+006
19790	2.7233e+006
19791	1.3961e+006
19791	1.3029e+006
19792	2.5473e+006
19792	2.4937e+006
19793	1.8917e+006
19793	2.0307e+006
19794	2.6723e+006
19794	3.2547e+006
19795	1.2855e+006
19795	2.5846e+006
19796	1.6944e+006
19796	3.4469e+006
19797	2.3273e+006
19797	3.8915e+006
19798	2.2461e+006
19798	2.1886e+006
19799	1.9173e+006
19799	1.765e+006
19800	2.2078e+006
19800	2.7985e+006
19801	1.4003e+006
19801	2.7249e+006
19802	3.3307e+006
19802	1.6123e+006
19803	7.5883e+005
19803	1.6186e+006
19804	4.6037e+006
19804	2.8731e+006
19805	1.7854e+006
19805	2.3885e+006
19806	2.1879e+006
19806	1.4209e+006
19807	2.2623e+006
19807	2.1067e+006
19808	1.4292e+006
19808	2.4684e+006
19809	1.506e+006
19809	1.1673e+006
19810	1.8621e+006
19810	1.5149e+006
19811	2.0492e+006
19811	2.6364e+006
19812	3.5329e+006
19812	2.8172e+006
19813	2.0218e+006
19813	1.7714e+006
19814	3.7146e+006
19814	4.3381e+006
19815	1.194e+006
19815	9.7732e+005
19816	4.5909e+006
19816	5.4662e+006
19817	2.0347e+006
19817	2.2821e+006
19818	1.8619e+006
19818	1.956e+006
19819	4.7534e+006
19819	4.0093e+006
19820	1.3174e+006
19820	1.2847e+006
19821	1.3309e+006
19821	1.3147e+006
19822	2.2595e+006
19822	3.0703e+006
19823	1.9816e+006
19823	1.4938e+006
19824	2.0695e+006
19824	3.388e+006
19825	3.0779e+006
19825	2.8611e+006
19826	1.3278e+006
19826	2.794e+006
19827	1.3983e+006
19827	5.6872e+005
19828	1.6985e+006
19828	1.2954e+006
19829	1.273e+006
19829	5.9747e+005
19830	1.653e+006
19830	8.0651e+005
19831	0.
19831	0.
19832	0.
19832	0.
19833	0.
19833	0.
19834	0.
19834	0.
19835	0.
19835	0.
19836	0.
19836	0.
19837	2.7858e+006
19837	2.708e+006
19838	3.062e+006
19838	2.0839e+006
19839	1.617e+006
19839	2.9977e+006
19840	3.6606e+006
19840	1.6539e+006
19841	2.9261e+006
19841	7.0161e+005
19842	2.4024e+006
19842	2.7783e+006
19843	4.362e+006
19843	5.9338e+006
19844	8.3292e+005
19844	3.4075e+006
19845	3.1068e+006
19845	5.8657e+005
19846	2.4831e+006
19846	3.9281e+006
19847	1.7579e+006
19847	3.107e+006
19848	2.3482e+006
19848	2.1979e+006
19849	1.3321e+006
19849	8.7237e+005
19850	4.1097e+006
19850	1.7973e+006
19851	1.4673e+006
19851	2.5882e+006
19852	1.8954e+006
19852	9.648e+005
19853	2.5039e+006
19853	2.4395e+006
19854	1.3753e+006
19854	1.5933e+006
19855	2.3096e+006
19855	2.459e+006
19856	1.9212e+006
19856	6.2171e+005
19857	3.6054e+006
19857	2.4641e+006
19858	1.5668e+006
19858	3.6735e+006
19859	1.7993e+006
19859	2.1477e+006
19860	2.1156e+006
19860	2.6516e+006
19861	1.3465e+006
19861	1.6703e+006
19862	4.4716e+006
19862	3.9223e+006
19863	2.9985e+006
19863	2.0667e+006
19864	1.3213e+006
19864	1.1839e+006
19865	1.1302e+006
19865	1.6081e+006
19866	1.7839e+006
19866	1.4981e+006
19867	2.2461e+006
19867	3.3637e+006
19868	3.3392e+006
19868	2.3066e+006
19869	1.4763e+006
19869	2.6111e+006
19870	2.6149e+006
19870	3.0946e+006
19871	4.1909e+006
19871	2.4101e+006
19872	3.1066e+006
19872	3.8147e+006
19873	3.3348e+006
19873	4.4878e+006
19874	2.5976e+006
19874	2.9868e+006
19875	3.1118e+006
19875	2.9811e+006
19876	2.6757e+006
19876	2.7608e+006
19877	7.9763e+005
19877	1.8384e+006
19878	1.1286e+006
19878	2.0968e+006
19879	1.2209e+006
19879	1.5037e+006
19880	9.6706e+005
19880	1.4031e+006
19881	2.4616e+006
19881	1.9597e+006
19882	2.1902e+006
19882	4.2514e+006
19883	2.712e+006
19883	2.5818e+006
19884	4.4974e+006
19884	3.2487e+006
19885	3.5469e+006
19885	4.7806e+006
19886	2.328e+006
19886	2.5282e+006
19887	3.7242e+006
19887	3.4965e+006
19888	2.4081e+006
19888	2.7866e+006
19889	1.2172e+006
19889	9.0108e+005
19890	2.3807e+006
19890	3.1161e+006
19891	1.8062e+006
19891	2.2112e+006
19892	1.9642e+006
19892	1.4548e+006
19893	3.2873e+005
19893	1.693e+006
19894	1.7179e+006
19894	1.9193e+006
19895	3.8165e+006
19895	2.5662e+006
19896	1.4861e+006
19896	1.2831e+006
19897	9.7352e+005
19897	7.1967e+005
19898	1.8815e+006
19898	1.9545e+006
19899	1.8226e+006
19899	1.0319e+006
19900	2.5115e+006
19900	2.4661e+006
19901	3.4564e+006
19901	2.7462e+006
19902	1.8988e+006
19902	1.4224e+006
19903	1.887e+006
19903	1.4199e+006
19904	1.5467e+006
19904	1.5352e+006
19905	2.0148e+006
19905	1.3573e+006
19906	0.
19906	0.
19907	0.
19907	0.
19908	0.
19908	0.
19909	0.
19909	0.
19910	0.
19910	0.
19911	0.
19911	0.
19912	0.
19912	0.
19913	2.3798e+006
19913	1.251e+006
19914	1.2637e+006
19914	1.7505e+006
19915	1.7685e+006
19915	5.0147e+006
19916	3.9503e+006
19916	4.7633e+006
19917	8.3697e+005
19917	1.9073e+006
19918	3.8665e+006
19918	3.3734e+006
19919	2.1292e+006
19919	4.6261e+006
19920	5.4904e+006
19920	3.9802e+006
19921	1.31e+006
19921	1.4347e+006
19922	3.1096e+006
19922	4.9438e+006
19923	4.7803e+006
19923	2.6973e+006
19924	5.2858e+006
19924	2.2807e+006
19925	1.4521e+006
19925	2.2134e+006
19926	2.8911e+006
19926	4.0061e+006
19927	1.1561e+006
19927	1.2331e+006
19928	3.4436e+006
19928	4.71e+006
19929	6.487e+006
19929	2.4742e+006
19930	2.8516e+006
19930	2.3907e+006
19931	3.7284e+006
19931	6.7553e+006
19932	3.9595e+006
19932	5.2757e+006
19933	3.0575e+006
19933	7.2254e+006
19934	3.4677e+006
19934	1.6832e+006
19935	2.55e+005
19935	2.1671e+006
19936	2.2395e+006
19936	3.5454e+006
19937	5.1917e+006
19937	2.1813e+006
19938	2.57e+006
19938	2.4046e+006
19939	1.9918e+006
19939	2.0486e+006
19940	2.8532e+006
19940	1.4003e+006
19941	2.0023e+006
19941	4.3592e+006
19942	1.6184e+006
19942	1.796e+006
19943	1.9414e+006
19943	1.9295e+006
19944	2.164e+006
19944	2.2401e+006
19945	0.
19945	0.
19946	0.
19946	0.
19947	0.
19947	0.
19948	0.
19948	0.
19949	0.
19949	0.
19950	0.
19950	0.
19951	0.
19951	0.
19952	0.
19952	0.
19953	0.
19953	0.
19954	0.
19954	0.
19955	0.
19955	0.
19956	7.5042e+005
19956	1.415e+006
19957	7.5491e+005
19957	1.5808e+006
19958	0.
19958	0.
19959	4.3296e+006
19959	2.3767e+006
19960	0.
19960	0.
19961	6.2011e+006
19961	4.0341e+006
19962	1.8512e+006
19962	1.6542e+006
19963	1.7385e+006
19963	3.0755e+006
19964	2.1226e+006
19964	1.4243e+006
19965	2.2648e+006
19965	2.3383e+006
19966	2.7494e+006
19966	1.8151e+006
19967	7.9413e+005
19967	1.7016e+006
19968	1.2619e+006
19968	3.416e+006
19969	3.0912e+006
19969	4.1039e+006
19970	3.1759e+006
19970	1.8346e+006
19971	3.0374e+006
19971	2.9781e+006
19972	2.5042e+006
19972	2.0599e+006
19973	7.1168e+005
19973	1.6646e+006
19974	1.5792e+006
19974	2.8763e+005
19975	2.6105e+006
19975	1.2026e+006
19976	2.5668e+006
19976	2.5553e+006
19977	3.3176e+006
19977	3.9354e+006
19978	2.0551e+006
19978	2.4455e+006
19979	3.2143e+006
19979	2.3894e+006
19980	1.3728e+006
19980	1.3369e+006
19981	2.941e+006
19981	2.4361e+006
19982	1.7617e+006
19982	3.2117e+006
19983	3.6193e+006
19983	3.1865e+006
19984	3.2206e+006
19984	3.1289e+006
19985	2.4981e+006
19985	4.3526e+006
19986	2.56e+006
19986	3.7172e+006
19987	1.8142e+006
19987	2.2969e+006
19988	2.1224e+006
19988	2.686e+006
19989	2.0991e+006
19989	3.0854e+006
19990	3.2652e+006
19990	3.3142e+006
19991	2.6835e+006
19991	2.5744e+006
19992	3.786e+006
19992	1.4531e+006
19993	2.0182e+006
19993	2.9481e+006
19994	2.2545e+006
19994	3.0636e+006
19995	9.8737e+005
19995	1.0569e+006
19996	6.2609e+005
19996	4.5635e+005
19997	2.2135e+006
19997	2.3655e+006
19998	2.3642e+006
19998	2.8181e+006
19999	1.0088e+006
19999	3.0799e+006
20000	1.5931e+006
20000	2.232e+006
20001	3.2508e+006
20001	2.6306e+006
20002	3.4595e+006
20002	3.3752e+006
20003	2.2373e+006
20003	2.6885e+006
20004	2.7557e+006
20004	2.927e+006
20005	4.7521e+006
20005	2.4117e+006
20006	2.3452e+006
20006	9.7131e+005
20007	1.1344e+006
20007	7.5165e+005
20008	1.5534e+006
20008	1.2902e+006
20009	1.2351e+006
20009	1.6898e+006
20010	5.2355e+005
20010	1.4276e+006
20011	1.6855e+006
20011	9.9128e+005
20012	1.272e+006
20012	1.9377e+006
20013	1.282e+006
20013	1.1886e+006
20014	1.1161e+006
20014	8.3118e+005
20015	2.5723e+006
20015	4.1918e+005
20016	1.8853e+006
20016	1.0533e+006
20017	1.8905e+006
20017	1.169e+006
20018	1.0135e+006
20018	1.3786e+006
20019	1.2534e+006
20019	1.5557e+006
20020	1.718e+006
20020	7.7563e+005
20021	0.
20021	0.
20022	0.
20022	0.
20023	0.
20023	0.
20024	0.
20024	0.
20025	0.
20025	0.
20026	0.
20026	0.
20027	0.
20027	0.
20028	0.
20028	0.
20029	1.1027e+006
20029	1.0313e+006
20030	2.8321e+006
20030	6.7619e+005
20031	0.
20031	0.
20032	2.1028e+006
20032	2.2355e+006
20033	6.5637e+005
20033	2.5867e+005
20034	0.
20034	0.
20035	0.
20035	0.
20036	1.2961e+006
20036	1.1298e+006
20037	2.4256e+006
20037	1.757e+006
20038	2.5767e+006
20038	7.25e+005
20039	3.0714e+006
20039	3.9077e+006
20040	2.4162e+006
20040	3.1097e+006
20041	9.0924e+005
20041	4.2431e+006
20042	9.359e+005
20042	1.2561e+006
20043	3.22e+006
20043	2.2457e+006
20044	2.8463e+006
20044	2.6674e+006
20045	2.7552e+006
20045	2.879e+006
20046	3.7203e+006
20046	3.9847e+006
20047	2.8819e+006
20047	2.8023e+006
20048	1.8891e+006
20048	2.5283e+006
20049	1.6962e+006
20049	1.6549e+006
20050	1.6933e+006
20050	3.3557e+006
20051	1.7769e+006
20051	2.3431e+006
20052	3.4537e+006
20052	3.5364e+006
20053	3.9447e+006
20053	3.7364e+006
20054	3.4901e+006
20054	1.8237e+006
20055	1.8478e+006
20055	3.852e+006
20056	8.5443e+005
20056	1.147e+006
20057	2.6849e+006
20057	3.5849e+006
20058	1.7455e+006
20058	2.4185e+006
20059	1.2031e+006
20059	1.1934e+006
20060	1.3054e+006
20060	1.4236e+006
20061	3.0376e+006
20061	2.1967e+006
20062	4.1796e+006
20062	2.1677e+006
20063	1.4609e+006
20063	9.5141e+005
20064	1.2261e+006
20064	1.6151e+006
20065	2.6456e+006
20065	2.5272e+006
20066	3.0159e+006
20066	2.3573e+006
20067	3.3324e+006
20067	3.301e+006
20068	3.8237e+006
20068	2.103e+006
20069	2.4482e+006
20069	2.565e+006
20070	1.0894e+006
20070	1.1513e+006
20071	1.29e+006
20071	9.0239e+005
20072	4.3955e+006
20072	4.1329e+006
20073	3.7255e+006
20073	4.4689e+006
20074	3.482e+006
20074	3.4299e+006
20075	3.1755e+006
20075	3.6539e+006
20076	1.9273e+006
20076	2.6229e+006
20077	2.4628e+006
20077	3.5212e+006
20078	1.787e+006
20078	7.7641e+005
20079	1.1588e+006
20079	2.2117e+006
20080	2.3916e+006
20080	1.9802e+006
20081	3.2772e+006
20081	2.6935e+006
20082	2.4074e+006
20082	3.7031e+006
20083	1.586e+006
20083	1.7356e+006
20084	8.7806e+005
20084	7.4629e+005
20085	1.4531e+006
20085	1.3624e+006
20086	1.2691e+006
20086	1.6602e+006
20087	1.3004e+006
20087	9.194e+005
20088	0.
20088	0.
20089	0.
20089	0.
20090	0.
20090	0.
20091	0.
20091	0.
20092	0.
20092	0.
20093	0.
20093	0.
20094	0.
20094	0.
20095	0.
20095	0.
20096	0.
20096	0.
20097	0.
20097	0.
20098	0.
20098	0.
20099	0.
20099	0.
20100	0.
20100	0.
20101	4.2916e+006
20101	3.4266e+006
20102	1.5209e+006
20102	2.3589e+005
20103	2.0909e+006
20103	1.8667e+006
20104	4.7485e+005
20104	3.0362e+006
20105	2.2726e+006
20105	3.4519e+006
20106	2.0209e+006
20106	2.2913e+006
20107	4.1412e+006
20107	3.6306e+006
20108	4.3552e+006
20108	2.3428e+006
20109	2.3099e+006
20109	3.3563e+006
20110	2.5928e+006
20110	3.2581e+006
20111	2.9468e+006
20111	2.9106e+006
20112	2.4587e+006
20112	3.0737e+006
20113	4.8198e+006
20113	3.7126e+006
20114	4.662e+006
20114	3.7633e+006
20115	2.1027e+006
20115	2.4284e+006
20116	5.2006e+006
20116	2.9902e+006
20117	4.444e+006
20117	3.195e+006
20118	2.7076e+006
20118	6.0085e+006
20119	3.8478e+006
20119	2.6649e+006
20120	1.387e+006
20120	4.4183e+006
20121	2.586e+006
20121	4.213e+006
20122	2.6617e+006
20122	4.3419e+006
20123	4.5998e+006
20123	4.0528e+006
20124	5.5199e+006
20124	3.3105e+006
20125	3.6304e+006
20125	2.8291e+006
20126	1.7334e+006
20126	4.7245e+006
20127	3.049e+006
20127	4.0434e+006
20128	3.3372e+006
20128	3.1054e+006
20129	4.8765e+006
20129	5.2425e+006
20130	3.8322e+006
20130	2.9288e+006
20131	6.482e+005
20131	6.5242e+005
20132	1.3323e+006
20132	2.9272e+006
20133	1.258e+006
20133	1.7387e+006
20134	2.576e+006
20134	4.8653e+006
20135	3.777e+006
20135	3.8889e+006
20136	3.4085e+006
20136	3.7777e+006
20137	4.3856e+006
20137	2.809e+006
20138	6.0949e+006
20138	2.4e+006
20139	5.1726e+006
20139	5.3272e+006
20140	5.1746e+006
20140	5.0162e+006
20141	2.5262e+006
20141	4.1072e+006
20142	4.0332e+006
20142	3.349e+006
20143	4.5657e+006
20143	4.66e+006
20144	3.335e+006
20144	3.7147e+006
20145	4.1655e+006
20145	3.1934e+006
20146	2.8391e+006
20146	2.5101e+006
20147	3.4468e+006
20147	3.1484e+006
20148	1.8004e+006
20148	1.7427e+006
20149	5.2652e+006
20149	3.1113e+006
20150	2.5513e+006
20150	3.0843e+006
20151	2.7673e+006
20151	3.1189e+006
20152	3.9163e+006
20152	2.3184e+006
20153	2.4086e+006
20153	2.013e+006
20154	4.3479e+006
20154	4.4519e+006
20155	5.2046e+006
20155	2.4031e+006
20156	2.6916e+006
20156	2.4674e+006
20157	2.4416e+006
20157	2.8401e+006
20158	2.2567e+006
20158	1.2208e+006
20159	2.0222e+006
20159	1.9766e+006
20160	1.6079e+006
20160	1.2159e+006
20161	2.221e+006
20161	1.3457e+006
20162	2.5515e+006
20162	1.6621e+006
20163	1.3529e+006
20163	1.9193e+006
20164	5.9852e+005
20164	1.3246e+006
20165	1.4393e+006
20165	6.4243e+005
20166	1.4708e+006
20166	8.1617e+005
20167	0.
20167	0.
20168	0.
20168	0.
20169	0.
20169	0.
20170	0.
20170	0.
20171	0.
20171	0.
20172	2.5264e+006
20172	1.0532e+006
20173	0.
20173	0.
20174	0.
20174	0.
20175	3.0072e+006
20175	1.9123e+006
20176	2.5721e+006
20176	1.1603e+006
20177	9.1987e+005
20177	1.097e+006
20178	3.0003e+006
20178	1.0452e+006
20179	2.9637e+006
20179	1.8126e+006
20180	3.7164e+006
20180	2.9286e+006
20181	2.2866e+006
20181	1.8338e+006
20182	1.0949e+006
20182	3.8367e+006
20183	3.2728e+006
20183	4.3509e+006
20184	3.5244e+006
20184	2.7324e+006
20185	1.7992e+006
20185	3.5342e+006
20186	3.4066e+006
20186	3.1241e+006
20187	6.7345e+005
20187	1.6807e+006
20188	1.2404e+006
20188	1.8128e+006
20189	2.0181e+006
20189	1.4338e+006
20190	2.265e+006
20190	2.769e+006
20191	3.0272e+006
20191	1.5546e+006
20192	2.2819e+006
20192	3.2633e+006
20193	3.2587e+006
20193	2.2014e+006
20194	1.0448e+006
20194	2.4187e+006
20195	2.575e+006
20195	3.7123e+006
20196	1.8817e+006
20196	5.1321e+005
20197	2.6662e+006
20197	3.0427e+006
20198	1.0193e+006
20198	1.5004e+006
20199	4.1982e+006
20199	2.2734e+006
20200	2.61e+006
20200	2.8749e+006
20201	4.3557e+006
20201	4.4651e+006
20202	4.8655e+006
20202	4.6121e+006
20203	3.0348e+006
20203	2.2992e+006
20204	1.3538e+006
20204	1.6938e+006
20205	1.7072e+006
20205	2.543e+006
20206	7.3301e+005
20206	1.0106e+006
20207	1.5443e+006
20207	2.7808e+006
20208	5.0158e+005
20208	2.12e+005
20209	3.2637e+006
20209	4.3399e+006
20210	4.6744e+006
20210	3.6678e+006
20211	6.1408e+006
20211	3.8374e+006
20212	1.0213e+006
20212	8.8725e+005
20213	6.6659e+006
20213	3.9716e+006
20214	1.4803e+006
20214	2.0415e+006
20215	3.3379e+006
20215	3.3641e+006
20216	6.8428e+005
20216	1.0105e+006
20217	2.4041e+006
20217	1.9043e+006
20218	2.334e+006
20218	1.386e+006
20219	1.3437e+006
20219	2.1922e+005
20220	2.1836e+006
20220	2.4838e+006
20221	3.0385e+006
20221	2.3342e+006
20222	1.1515e+006
20222	1.6724e+006
20223	2.2333e+006
20223	2.3791e+006
20224	1.5352e+006
20224	2.423e+006
20225	2.9805e+006
20225	2.165e+006
20226	1.0171e+006
20226	9.1392e+005
20227	2.1422e+006
20227	9.516e+005
20228	1.5969e+006
20228	9.1077e+005
20229	1.4029e+006
20229	6.9522e+005
20230	1.0725e+006
20230	1.373e+006
20231	1.5858e+006
20231	9.2133e+005
20232	0.
20232	0.
20233	0.
20233	0.
20234	0.
20234	0.
20235	0.
20235	0.
20236	0.
20236	0.
20237	0.
20237	0.
20238	0.
20238	0.
20239	0.
20239	0.
20240	0.
20240	0.
20241	0.
20241	0.
20242	0.
20242	0.
20243	0.
20243	0.
20244	4.7592e+006
20244	1.9747e+006
20245	1.801e+006
20245	2.004e+006
20246	7.8821e+005
20246	1.9778e+006
20247	1.8468e+006
20247	2.6135e+006
20248	1.0933e+006
20248	2.343e+006
20249	3.7206e+006
20249	4.1035e+006
20250	3.8783e+006
20250	3.9089e+006
20251	1.1584e+006
20251	2.2847e+006
20252	1.9648e+006
20252	1.5031e+006
20253	2.5102e+006
20253	1.3811e+006
20254	1.6668e+006
20254	1.7205e+006
20255	1.7561e+006
20255	1.011e+006
20256	1.7823e+006
20256	1.1272e+006
20257	2.7554e+006
20257	1.4188e+006
20258	2.8596e+006
20258	1.5379e+006
20259	3.4547e+006
20259	4.128e+006
20260	1.344e+006
20260	3.2423e+006
20261	2.4001e+006
20261	1.6257e+006
20262	2.1799e+006
20262	3.0151e+006
20263	2.6947e+006
20263	3.3003e+006
20264	9.0255e+005
20264	1.4654e+006
20265	2.1402e+006
20265	3.3421e+006
20266	8.2446e+005
20266	1.7662e+006
20267	1.8385e+006
20267	7.7042e+005
20268	1.6666e+006
20268	1.127e+006
20269	1.426e+006
20269	9.6804e+005
20270	3.8405e+006
20270	3.1119e+006
20271	3.019e+006
20271	3.0513e+006
20272	1.6306e+006
20272	2.6545e+006
20273	4.4063e+006
20273	3.8626e+006
20274	2.7635e+006
20274	2.3593e+006
20275	1.1095e+006
20275	1.471e+006
20276	3.4066e+006
20276	2.4696e+006
20277	2.7265e+006
20277	2.2967e+006
20278	2.2076e+006
20278	1.1151e+006
20279	1.3104e+006
20279	2.0885e+006
20280	2.3879e+006
20280	1.1699e+006
20281	1.337e+006
20281	8.1755e+005
20282	2.3856e+006
20282	1.7647e+006
20283	2.9677e+006
20283	3.1412e+006
20284	3.028e+006
20284	3.1026e+006
20285	3.089e+006
20285	3.4877e+006
20286	5.1137e+006
20286	3.2491e+006
20287	1.3528e+006
20287	2.2521e+006
20288	3.2258e+006
20288	3.0296e+006
20289	2.4425e+006
20289	3.1569e+006
20290	2.6309e+006
20290	1.0296e+006
20291	2.4681e+006
20291	1.5568e+006
20292	1.5266e+006
20292	1.9581e+006
20293	1.219e+006
20293	1.9415e+006
20294	1.0271e+006
20294	2.6447e+006
20295	3.0695e+006
20295	8.3548e+005
20296	2.5003e+006
20296	2.2072e+006
20297	1.3708e+006
20297	1.5995e+006
20298	9.4231e+005
20298	3.3529e+006
20299	3.0027e+006
20299	8.8692e+005
20300	1.1958e+006
20300	3.1304e+006
20301	2.3312e+006
20301	2.5616e+006
20302	1.3771e+006
20302	1.7649e+006
20303	1.3542e+006
20303	1.2862e+006
20304	8.3332e+005
20304	2.161e+006
20305	4.8172e+005
20305	7.0495e+005
20306	7.8287e+005
20306	7.0212e+005
20307	1.7466e+006
20307	1.6188e+006
20308	1.4994e+006
20308	1.0357e+006
20309	9.7478e+005
20309	2.062e+006
20310	1.0322e+006
20310	1.0945e+006
20311	1.8728e+006
20311	1.2948e+006
20312	1.673e+006
20312	1.4634e+006
20313	0.
20313	0.
20314	0.
20314	0.
20315	0.
20315	0.
20316	0.
20316	0.
20317	0.
20317	0.
20318	0.
20318	0.
20319	3.9654e+006
20319	4.0964e+006
20320	4.3208e+006
20320	3.9395e+006
20321	8.7621e+005
20321	2.7386e+006
20322	2.7406e+006
20322	3.4693e+006
20323	3.5421e+006
20323	3.6465e+006
20324	1.0241e+006
20324	1.5148e+006
20325	5.2163e+006
20325	4.8567e+006
20326	4.8739e+006
20326	2.5954e+006
20327	2.8881e+006
20327	3.9634e+006
20328	4.1961e+006
20328	4.1657e+006
20329	5.4427e+006
20329	4.3359e+006
20330	1.5336e+006
20330	1.017e+006
20331	6.3212e+006
20331	4.7701e+006
20332	1.866e+006
20332	4.0008e+006
20333	2.9088e+006
20333	1.4821e+006
20334	2.851e+006
20334	2.5451e+006
20335	5.0764e+006
20335	3.1286e+006
20336	5.1407e+006
20336	2.8164e+006
20337	3.9944e+006
20337	7.1895e+006
20338	5.1312e+006
20338	4.2944e+006
20339	4.3308e+006
20339	4.8764e+006
20340	5.5863e+006
20340	4.2089e+006
20341	3.2109e+006
20341	1.8607e+006
20342	2.123e+006
20342	3.718e+006
20343	1.5491e+006
20343	2.5814e+006
20344	3.8259e+006
20344	2.7411e+006
20345	2.8292e+006
20345	2.0574e+006
20346	3.2289e+006
20346	2.2361e+006
20347	2.4181e+006
20347	2.4754e+006
20348	1.8993e+006
20348	1.6922e+006
20349	0.
20349	0.
20350	0.
20350	0.
20351	0.
20351	0.
20352	0.
20352	0.
20353	0.
20353	0.
20354	0.
20354	0.
20355	0.
20355	0.
20356	0.
20356	0.
20357	0.
20357	0.
20358	0.
20358	0.
20359	1.5078e+006
20359	4.3848e+005
20360	1.3024e+006
20360	7.0522e+005
20361	8.5101e+005
20361	8.5789e+005
20362	7.2079e+005
20362	2.0789e+006
20363	0.
20363	0.
20364	2.5121e+006
20364	2.5955e+006
20365	1.4985e+006
20365	2.3438e+006
20366	3.5366e+006
20366	3.6467e+006
20367	2.5465e+006
20367	3.6391e+006
20368	4.4614e+006
20368	2.3427e+006
20369	1.0543e+006
20369	1.1195e+006
20370	3.3095e+006
20370	2.6971e+006
20371	1.8589e+006
20371	1.9937e+006
20372	2.2328e+006
20372	4.0074e+006
20373	3.5076e+006
20373	3.6528e+006
20374	2.5635e+006
20374	5.1149e+006
20375	3.1271e+006
20375	2.8154e+006
20376	3.227e+006
20376	2.6684e+006
20377	4.4454e+006
20377	3.0682e+006
20378	1.9977e+006
20378	2.6583e+006
20379	3.0417e+006
20379	3.0386e+006
20380	2.3808e+006
20380	3.2345e+006
20381	1.2586e+006
20381	1.9644e+006
20382	1.4942e+006
20382	2.336e+006
20383	2.0123e+006
20383	2.9235e+006
20384	1.5071e+006
20384	6.9786e+005
20385	2.0339e+006
20385	1.9768e+006
20386	3.4453e+006
20386	3.5512e+006
20387	3.1185e+006
20387	3.0303e+006
20388	2.1676e+006
20388	1.6375e+006
20389	1.3293e+006
20389	3.6989e+006
20390	2.0711e+006
20390	8.3019e+005
20391	3.4108e+006
20391	1.9661e+006
20392	2.4575e+006
20392	3.5264e+006
20393	3.4961e+006
20393	4.1096e+006
20394	4.52e+006
20394	3.3505e+006
20395	3.4073e+006
20395	1.8301e+006
20396	1.9163e+006
20396	2.1007e+006
20397	2.263e+006
20397	1.0825e+006
20398	3.8226e+006
20398	3.2597e+006
20399	4.0596e+006
20399	2.3653e+006
20400	5.1944e+006
20400	3.8591e+006
20401	4.0745e+006
20401	4.0837e+006
20402	2.0158e+006
20402	1.9896e+006
20403	4.6928e+006
20403	2.404e+006
20404	2.4136e+006
20404	2.5789e+006
20405	2.6454e+006
20405	1.6464e+006
20406	2.4992e+006
20406	1.3581e+006
20407	1.5869e+006
20407	1.4171e+006
20408	9.3974e+005
20408	1.1493e+006
20409	6.0871e+005
20409	1.345e+006
20410	2.0857e+006
20410	1.622e+006
20411	1.6312e+006
20411	1.0996e+006
20412	1.1168e+006
20412	3.6413e+005
20413	1.1834e+006
20413	2.1441e+006
20414	1.593e+006
20414	1.651e+006
20415	5.1683e+005
20415	1.882e+006
20416	0.
20416	0.
20417	0.
20417	0.
20418	0.
20418	0.
20419	0.
20419	0.
20420	0.
20420	0.
20421	1.5608e+006
20421	5.3605e+005
20422	0.
20422	0.
20423	5.2083e+005
20423	2.0539e+006
20424	0.
20424	0.
20425	7.7465e+005
20425	1.6148e+006
20426	1.5463e+006
20426	4.0574e+005
20427	1.393e+006
20427	1.023e+006
20428	2.331e+006
20428	1.3425e+006
20429	2.9196e+006
20429	2.8962e+006
20430	1.6671e+006
20430	3.4004e+006
20431	2.0822e+006
20431	9.9428e+005
20432	5.7942e+005
20432	2.7974e+006
20433	2.6298e+006
20433	4.0055e+006
20434	1.85e+006
20434	5.6542e+006
20435	1.428e+006
20435	1.7162e+006
20436	1.7276e+006
20436	2.5981e+006
20437	2.9775e+006
20437	1.59e+006
20438	9.8512e+005
20438	2.6888e+006
20439	1.4486e+006
20439	1.6108e+006
20440	1.1916e+006
20440	1.0941e+006
20441	1.9439e+006
20441	2.2253e+006
20442	1.6757e+006
20442	1.5298e+006
20443	2.7051e+006
20443	4.6708e+006
20444	1.4137e+006
20444	1.2334e+006
20445	1.9008e+006
20445	8.5845e+005
20446	1.1423e+006
20446	9.3904e+005
20447	1.2608e+006
20447	2.5448e+006
20448	1.7996e+006
20448	2.1134e+006
20449	3.7707e+006
20449	1.54e+006
20450	3.797e+006
20450	3.2267e+006
20451	2.1679e+006
20451	2.9453e+006
20452	9.7179e+005
20452	4.4626e+005
20453	9.6926e+005
20453	2.8429e+006
20454	1.7057e+006
20454	1.2678e+006
20455	2.9169e+006
20455	1.3044e+006
20456	1.7632e+006
20456	2.2464e+006
20457	2.582e+006
20457	2.3898e+006
20458	2.1215e+006
20458	9.72e+005
20459	5.0291e+006
20459	3.3097e+006
20460	2.8e+006
20460	4.5311e+006
20461	3.5649e+006
20461	4.3045e+006
20462	2.7314e+006
20462	4.0147e+006
20463	2.4262e+006
20463	3.9787e+006
20464	3.3587e+006
20464	6.2378e+006
20465	2.9138e+006
20465	3.8077e+006
20466	1.9719e+006
20466	1.0389e+006
20467	2.717e+006
20467	2.2153e+006
20468	1.8885e+006
20468	1.4426e+006
20469	1.7822e+006
20469	2.644e+006
20470	2.512e+006
20470	2.5554e+006
20471	2.6807e+006
20471	1.9667e+006
20472	1.0309e+006
20472	1.0503e+006
20473	1.0356e+006
20473	9.4792e+005
20474	1.284e+006
20474	6.7864e+005
20475	1.2604e+006
20475	1.3675e+006
20476	1.0995e+006
20476	6.1318e+005
20477	1.5476e+006
20477	1.2405e+006
20478	1.1494e+006
20478	9.6166e+005
20479	0.
20479	0.
20480	0.
20480	0.
20481	0.
20481	0.
20482	0.
20482	0.
20483	0.
20483	0.
20484	0.
20484	0.
20485	0.
20485	0.
20486	0.
20486	0.
20487	0.
20487	0.
20488	0.
20488	0.
20489	0.
20489	0.
20490	1.2479e+006
20490	1.4042e+006
20491	0.
20491	0.
20492	4.9353e+005
20492	2.3987e+006
20493	1.72e+006
20493	6.4204e+005
20494	2.7494e+006
20494	3.0248e+006
20495	2.0707e+006
20495	1.0985e+006
20496	2.0033e+006
20496	3.0766e+006
20497	2.8608e+006
20497	4.7547e+006
20498	1.8615e+006
20498	8.1412e+005
20499	7.2501e+006
20499	1.7648e+006
20500	4.944e+006
20500	2.2032e+006
20501	3.8472e+006
20501	2.1615e+006
20502	4.096e+006
20502	2.8878e+006
20503	5.9105e+006
20503	2.0299e+006
20504	7.5924e+005
20504	1.6691e+006
20505	4.8001e+006
20505	2.9589e+006
20506	2.9531e+006
20506	1.3935e+006
20507	3.3974e+006
20507	2.7126e+006
20508	4.2899e+006
20508	4.4861e+006
20509	3.4271e+006
20509	4.5935e+006
20510	1.6492e+006
20510	4.4857e+006
20511	5.0945e+006
20511	4.7115e+006
20512	1.2456e+006
20512	4.4248e+006
20513	3.5127e+006
20513	3.9531e+006
20514	5.2377e+006
20514	4.4763e+006
20515	4.7315e+006
20515	3.3695e+006
20516	5.7778e+006
20516	3.2982e+006
20517	3.075e+006
20517	4.1573e+006
20518	3.3743e+006
20518	4.5034e+006
20519	1.1301e+006
20519	1.1389e+006
20520	1.3423e+006
20520	9.5145e+005
20521	3.333e+006
20521	3.6549e+006
20522	3.316e+006
20522	5.0913e+006
20523	4.6135e+006
20523	6.0284e+006
20524	3.5608e+006
20524	3.8054e+006
20525	6.809e+006
20525	3.5598e+006
20526	8.9312e+005
20526	1.5536e+006
20527	2.0807e+006
20527	2.5996e+006
20528	3.4796e+006
20528	3.6619e+006
20529	1.9724e+006
20529	7.7928e+005
20530	4.5448e+006
20530	5.2103e+006
20531	5.0071e+006
20531	5.036e+006
20532	4.9244e+006
20532	5.2299e+006
20533	5.8568e+006
20533	3.4934e+006
20534	8.241e+005
20534	1.2535e+006
20535	4.3639e+006
20535	3.1258e+006
20536	2.4312e+006
20536	4.2787e+006
20537	5.571e+005
20537	3.0985e+006
20538	1.898e+006
20538	5.4237e+006
20539	3.6287e+006
20539	3.8506e+006
20540	1.4747e+006
20540	1.2916e+006
20541	2.7771e+006
20541	4.0093e+006
20542	2.3805e+006
20542	2.1442e+006
20543	1.3098e+006
20543	1.5495e+006
20544	1.5885e+006
20544	1.8734e+006
20545	1.4411e+006
20545	1.8489e+006
20546	1.8132e+006
20546	1.1794e+006
20547	2.0018e+006
20547	2.3041e+006
20548	2.1837e+006
20548	1.6876e+006
20549	8.6629e+005
20549	9.8458e+005
20550	0.
20550	0.
20551	0.
20551	0.
20552	0.
20552	0.
20553	0.
20553	0.
20554	0.
20554	0.
20555	0.
20555	0.
20556	0.
20556	0.
20557	0.
20557	0.
20558	0.
20558	0.
20559	0.
20559	0.
20560	0.
20560	0.
20561	0.
20561	0.
20562	0.
20562	0.
20563	0.
20563	0.
20564	0.
20564	0.
20565	0.
20565	0.
20566	0.
20566	0.
20567	0.
20567	0.
20568	0.
20568	0.
20569	0.
20569	0.
20570	0.
20570	0.
20571	0.
20571	0.
20572	0.
20572	0.
20573	0.
20573	0.
20574	0.
20574	0.
20575	0.
20575	0.
20576	0.
20576	0.
20577	3.1082e+006
20577	2.3161e+006
20578	2.4391e+006
20578	2.328e+006
20579	0.
20579	0.
20580	0.
20580	0.
20581	0.
20581	0.
20582	7.3312e+005
20582	4.9825e+005
20583	1.5502e+006
20583	1.9696e+006
20584	9.658e+005
20584	1.4981e+006
20585	6.8768e+005
20585	1.4971e+006
20586	1.947e+006
20586	3.0538e+006
20587	1.8883e+006
20587	1.5424e+006
20588	1.4914e+006
20588	1.3685e+006
20589	1.4577e+006
20589	1.1266e+006
20590	2.5033e+006
20590	3.6815e+006
20591	2.7531e+006
20591	3.2034e+006
20592	1.9801e+006
20592	2.2031e+006
20593	2.5524e+006
20593	2.7516e+006
20594	4.5307e+006
20594	2.2201e+006
20595	2.0014e+006
20595	5.9521e+005
20596	2.8291e+006
20596	1.367e+006
20597	3.4978e+006
20597	1.6591e+006
20598	3.0848e+006
20598	3.5169e+006
20599	2.2571e+006
20599	2.0659e+006
20600	2.7994e+006
20600	4.6789e+006
20601	1.0582e+006
20601	1.5652e+006
20602	1.3999e+006
20602	2.7081e+006
20603	1.4809e+006
20603	4.101e+005
20604	1.3336e+006
20604	1.3884e+006
20605	1.925e+006
20605	3.4467e+006
20606	1.5895e+006
20606	6.9497e+005
20607	1.2622e+006
20607	2.8531e+006
20608	1.8123e+006
20608	1.567e+006
20609	2.1347e+006
20609	4.955e+005
20610	1.2492e+006
20610	9.7265e+005
20611	2.0082e+006
20611	1.2307e+006
20612	3.2364e+006
20612	2.6572e+006
20613	5.6443e+006
20613	2.4038e+006
20614	4.3448e+006
20614	3.353e+006
20615	1.726e+006
20615	1.8857e+006
20616	2.6058e+006
20616	3.3281e+006
20617	2.9103e+006
20617	1.791e+006
20618	8.6508e+005
20618	9.2185e+005
20619	2.0942e+006
20619	1.6236e+006
20620	1.547e+006
20620	2.1295e+006
20621	1.8798e+006
20621	1.4284e+006
20622	2.9684e+006
20622	2.6173e+006
20623	2.5731e+006
20623	2.5346e+006
20624	1.4338e+006
20624	1.6715e+006
20625	2.0426e+006
20625	2.6719e+006
20626	1.1694e+006
20626	1.8223e+006
20627	1.6567e+006
20627	2.6732e+006
20628	1.3937e+006
20628	7.2463e+005
20629	1.5356e+006
20629	1.9859e+006
20630	2.6451e+006
20630	2.3315e+006
20631	2.7256e+006
20631	3.1041e+006
20632	1.4613e+006
20632	2.3354e+006
20633	2.9812e+006
20633	3.4675e+006
20634	5.8853e+006
20634	4.1126e+006
20635	1.2597e+006
20635	1.0691e+006
20636	2.6625e+006
20636	2.7116e+006
20637	7.2552e+005
20637	2.0525e+006
20638	2.1092e+006
20638	4.2568e+006
20639	2.1987e+006
20639	3.6038e+006
20640	2.8641e+006
20640	1.9251e+006
20641	7.6785e+005
20641	1.9205e+006
20642	3.402e+006
20642	3.3016e+006
20643	3.1925e+006
20643	1.164e+006
20644	4.3865e+006
20644	3.1442e+006
20645	3.9031e+006
20645	2.8133e+006
20646	2.7067e+006
20646	1.0289e+006
20647	3.7255e+006
20647	1.83e+006
20648	3.8204e+006
20648	1.6932e+006
20649	1.7669e+006
20649	2.9618e+006
20650	2.8549e+006
20650	2.2124e+006
20651	2.698e+006
20651	3.5479e+006
20652	1.4861e+006
20652	1.1876e+006
20653	2.1556e+006
20653	1.2523e+006
20654	1.7187e+006
20654	2.5074e+006
20655	1.5293e+005
20655	2.634e+006
20656	1.5063e+006
20656	2.3348e+006
20657	6.2669e+005
20657	8.9145e+005
20658	2.745e+005
20658	7.3879e+005
20659	3.4358e+006
20659	1.9063e+006
20660	1.2187e+006
20660	2.1117e+006
20661	3.0583e+006
20661	3.2296e+006
20662	7.577e+005
20662	1.4396e+006
20663	1.3344e+006
20663	2.3093e+005
20664	2.4441e+006
20664	2.3525e+006
20665	4.4244e+006
20665	2.15e+006
20666	2.1223e+006
20666	2.187e+006
20667	2.6418e+006
20667	2.3666e+006
20668	1.9691e+006
20668	2.1499e+006
20669	1.2244e+006
20669	2.7086e+006
20670	1.8204e+006
20670	1.2637e+006
20671	2.2444e+006
20671	2.4009e+006
20672	2.3465e+006
20672	2.0323e+006
20673	1.7259e+006
20673	6.6567e+005
20674	1.9741e+006
20674	8.6949e+005
20675	8.2259e+005
20675	8.351e+005
20676	1.1093e+006
20676	1.2049e+006
20677	1.5679e+006
20677	1.5437e+006
20678	8.7044e+005
20678	9.3313e+005
20679	1.4073e+006
20679	9.4581e+005
20680	1.0152e+006
20680	9.1307e+005
20681	9.1146e+005
20681	1.0002e+006
20682	6.3414e+005
20682	4.2745e+005
20683	4.9495e+005
20683	1.5053e+006
20684	9.2519e+005
20684	1.2519e+006
20685	1.1401e+006
20685	9.5162e+005
20686	1.6909e+006
20686	6.5789e+005
20687	1.3155e+006
20687	6.2091e+005
20688	1.3686e+006
20688	1.0921e+006
20689	4.2219e+005
20689	1.2601e+006
20690	9.463e+005
20690	5.3832e+005
20691	5.9347e+005
20691	7.4913e+005
20692	4.0034e+005
20692	1.4842e+005
20693	0.
20693	0.
20694	0.
20694	0.
20695	0.
20695	0.
20696	0.
20696	0.
20697	1.9136e+006
20697	1.221e+006
20698	0.
20698	0.
20699	2.2371e+006
20699	1.6676e+006
20700	2.4851e+006
20700	1.4906e+006
20701	1.1919e+006
20701	9.6496e+005
20702	3.4001e+006
20702	1.8693e+006
20703	4.9209e+006
20703	2.4483e+006
20704	3.8294e+006
20704	1.9524e+006
20705	1.5743e+006
20705	2.5018e+006
20706	9.4933e+005
20706	2.392e+006
20707	3.1054e+006
20707	2.0825e+006
20708	1.3479e+006
20708	8.0824e+005
20709	2.0657e+006
20709	2.5207e+006
20710	1.1711e+006
20710	1.3121e+006
20711	1.1553e+006
20711	1.4918e+006
20712	2.3923e+006
20712	3.2318e+006
20713	2.2464e+006
20713	2.3004e+006
20714	2.6861e+006
20714	2.4747e+006
20715	1.5223e+006
20715	1.2804e+006
20716	3.2347e+006
20716	1.1697e+006
20717	1.5962e+006
20717	7.7469e+005
20718	1.6078e+006
20718	9.9478e+005
20719	2.4098e+006
20719	2.8718e+006
20720	2.5062e+006
20720	2.7192e+006
20721	1.3226e+006
20721	2.1713e+006
20722	1.7661e+006
20722	1.3025e+006
20723	5.0928e+005
20723	1.2622e+006
20724	2.3825e+006
20724	3.5354e+006
20725	4.4687e+006
20725	3.2251e+006
20726	1.864e+006
20726	3.6557e+005
20727	2.5085e+006
20727	1.925e+006
20728	2.0396e+006
20728	9.2455e+005
20729	1.4311e+006
20729	1.3747e+006
20730	1.0646e+006
20730	1.0789e+006
20731	0.
20731	0.
20732	0.
20732	0.
20733	0.
20733	0.
20734	0.
20734	0.
20735	0.
20735	0.
20736	0.
20736	0.
20737	0.
20737	0.
20738	0.
20738	0.
20739	0.
20739	0.
20740	2.2851e+006
20740	1.2995e+006
20741	1.9114e+006
20741	2.2884e+006
20742	9.5644e+005
20742	1.2056e+006
20743	1.5818e+006
20743	1.3475e+006
20744	4.3689e+006
20744	3.7988e+006
20745	2.3885e+006
20745	1.0906e+006
20746	9.7678e+005
20746	1.8473e+006
20747	3.7554e+006
20747	3.1924e+006
20748	4.5315e+006
20748	2.7697e+006
20749	6.2569e+006
20749	2.7487e+006
20750	4.2899e+006
20750	3.2715e+006
20751	2.8833e+006
20751	5.9463e+006
20752	2.4467e+006
20752	3.3366e+006
20753	3.9343e+006
20753	6.2133e+006
20754	5.5283e+006
20754	6.0416e+006
20755	2.3032e+006
20755	2.4124e+006
20756	4.8435e+006
20756	3.4295e+006
20757	2.0583e+006
20757	1.3655e+006
20758	5.3128e+006
20758	5.0766e+006
20759	3.7898e+006
20759	1.6052e+006
20760	1.7267e+006
20760	1.6941e+006
20761	1.3305e+006
20761	2.6784e+006
20762	3.0852e+006
20762	1.9793e+006
20763	2.6033e+006
20763	1.5028e+006
20764	2.5532e+006
20764	4.565e+006
20765	2.3183e+006
20765	3.0702e+006
20766	1.5332e+006
20766	2.0208e+006
20767	2.64e+006
20767	3.5657e+006
20768	3.2898e+006
20768	3.446e+006
20769	2.6075e+006
20769	2.163e+006
20770	3.4035e+006
20770	3.4806e+006
20771	2.8692e+006
20771	4.8989e+006
20772	1.8632e+006
20772	4.772e+006
20773	3.331e+006
20773	4.1529e+006
20774	1.5159e+006
20774	2.4001e+006
20775	2.9879e+006
20775	2.089e+006
20776	6.4465e+005
20776	1.9381e+006
20777	1.3653e+006
20777	1.2142e+006
20778	1.3976e+006
20778	8.1326e+005
20779	1.4134e+006
20779	1.0187e+006
20780	8.5911e+005
20780	2.5173e+006
20781	1.4636e+006
20781	1.9444e+006
20782	0.
20782	0.
20783	0.
20783	0.
20784	0.
20784	0.
20785	0.
20785	0.
20786	0.
20786	0.
20787	0.
20787	0.
20788	0.
20788	0.
20789	0.
20789	0.
20790	0.
20790	0.
20791	0.
20791	0.
20792	0.
20792	0.
20793	0.
20793	0.
20794	0.
20794	0.
20795	0.
20795	0.
20796	0.
20796	0.
20797	0.
20797	0.
20798	0.
20798	0.
20799	0.
20799	0.
20800	1.7167e+006
20800	3.5413e+006
20801	0.
20801	0.
20802	4.9093e+006
20802	5.1007e+006
20803	1.255e+006
20803	4.6821e+006
20804	5.4743e+006
20804	1.0064e+006
20805	4.0597e+005
20805	1.5522e+006
20806	3.4416e+006
20806	3.5937e+006
20807	4.046e+006
20807	4.1999e+006
20808	1.7305e+006
20808	3.1484e+006
20809	3.7923e+006
20809	3.8063e+006
20810	3.2221e+006
20810	1.3092e+005
20811	4.0319e+006
20811	3.3381e+006
20812	1.4425e+006
20812	1.1002e+006
20813	2.1204e+006
20813	7.8699e+005
20814	1.517e+006
20814	2.6601e+006
20815	2.56e+006
20815	1.0852e+006
20816	2.5217e+006
20816	1.436e+006
20817	2.3714e+006
20817	1.0726e+006
20818	9.349e+005
20818	8.9005e+005
20819	2.9607e+006
20819	2.3807e+006
20820	4.3883e+006
20820	3.0406e+006
20821	9.6185e+005
20821	2.1844e+006
20822	2.8405e+006
20822	3.8894e+006
20823	6.3786e+005
20823	6.0208e+005
20824	1.5754e+006
20824	1.3681e+006
20825	1.6004e+006
20825	4.4368e+005
20826	1.9409e+006
20826	1.5978e+006
20827	1.9617e+006
20827	2.4426e+006
20828	1.8907e+006
20828	1.2736e+006
20829	1.2793e+006
20829	1.2991e+006
20830	2.3538e+006
20830	1.8435e+006
20831	2.9985e+006
20831	3.6718e+006
20832	3.7726e+006
20832	3.3887e+006
20833	4.4099e+006
20833	3.9121e+006
20834	3.0786e+006
20834	3.5376e+006
20835	1.8102e+006
20835	2.6672e+006
20836	4.1611e+006
20836	3.6069e+006
20837	2.7706e+006
20837	2.2957e+006
20838	3.785e+006
20838	2.3005e+006
20839	2.2966e+006
20839	1.2651e+006
20840	6.0356e+006
20840	3.8062e+006
20841	5.1522e+006
20841	5.107e+006
20842	3.9093e+006
20842	4.3077e+006
20843	4.239e+006
20843	3.1094e+006
20844	3.6675e+006
20844	2.8476e+006
20845	3.3071e+006
20845	2.3716e+006
20846	1.7773e+006
20846	5.8698e+005
20847	1.7314e+006
20847	2.9473e+006
20848	1.0011e+006
20848	1.2519e+006
20849	1.5529e+006
20849	1.4815e+006
20850	2.9104e+006
20850	3.8236e+006
20851	9.6708e+005
20851	2.8985e+006
20852	2.8156e+006
20852	3.1288e+006
20853	4.7487e+005
20853	1.1487e+006
20854	4.7512e+006
20854	1.8662e+006
20855	4.01e+006
20855	4.2185e+006
20856	5.0171e+005
20856	2.1197e+006
20857	1.4596e+006
20857	1.6359e+006
20858	3.3709e+006
20858	1.0663e+006
20859	2.385e+006
20859	1.8173e+006
20860	2.3094e+006
20860	1.9526e+006
20861	3.0291e+006
20861	9.6604e+005
20862	1.8226e+006
20862	2.0146e+006
20863	1.091e+006
20863	1.1846e+006
20864	1.3563e+006
20864	1.0819e+006
20865	6.3032e+005
20865	1.5982e+006
20866	1.1817e+006
20866	1.4637e+006
20867	2.1037e+006
20867	8.0954e+005
20868	6.5148e+005
20868	1.4038e+006
20869	0.
20869	0.
20870	0.
20870	0.
20871	0.
20871	0.
20872	1.6823e+006
20872	6.878e+005
20873	5.8912e+005
20873	2.2159e+006
20874	3.6163e+006
20874	3.0289e+006
20875	4.0603e+006
20875	3.124e+006
20876	4.8149e+006
20876	3.4958e+006
20877	5.7245e+006
20877	3.8813e+006
20878	4.1265e+006
20878	3.9355e+006
20879	4.0278e+006
20879	3.7672e+006
20880	1.8486e+006
20880	2.8868e+006
20881	8.9366e+005
20881	1.9879e+006
20882	2.1949e+006
20882	1.0005e+006
20883	1.0354e+006
20883	2.1207e+006
20884	2.4692e+006
20884	2.0635e+006
20885	1.5721e+006
20885	3.3828e+006
20886	2.1529e+006
20886	3.4707e+006
20887	1.4133e+006
20887	3.3792e+006
20888	2.4842e+006
20888	3.0341e+006
20889	2.7655e+006
20889	1.9026e+006
20890	7.7353e+005
20890	1.5652e+006
20891	4.7913e+005
20891	2.7495e+005
20892	7.275e+005
20892	9.4261e+005
20893	1.8929e+006
20893	2.6465e+006
20894	3.2806e+006
20894	4.3734e+006
20895	7.405e+005
20895	1.9856e+006
20896	1.6257e+006
20896	1.5857e+006
20897	2.681e+006
20897	6.9084e+005
20898	8.3532e+005
20898	2.4498e+006
20899	9.3321e+005
20899	2.4094e+006
20900	1.7317e+006
20900	2.5309e+006
20901	2.4658e+006
20901	2.3269e+006
20902	2.2851e+006
20902	1.6685e+006
20903	2.4194e+006
20903	2.3265e+006
20904	1.8155e+006
20904	1.1887e+006
20905	1.8912e+006
20905	4.0971e+006
20906	1.9983e+006
20906	3.0583e+006
20907	2.2578e+006
20907	2.7719e+006
20908	2.7651e+006
20908	3.5815e+006
20909	2.5412e+006
20909	2.1333e+006
20910	3.1069e+006
20910	3.4056e+006
20911	1.5002e+006
20911	7.5005e+005
20912	1.1292e+006
20912	1.2905e+006
20913	1.0349e+006
20913	9.7472e+005
20914	6.5591e+005
20914	6.1867e+005
20915	2.6986e+005
20915	1.3258e+006
20916	0.
20916	0.
20917	0.
20917	0.
20918	0.
20918	0.
20919	0.
20919	0.
20920	0.
20920	0.
20921	0.
20921	0.
20922	3.324e+005
20922	5.0646e+005
20923	3.051e+005
20923	9.6911e+005
20924	1.4466e+006
20924	2.1838e+005
20925	5.7547e+005
20925	2.2263e+006
20926	4.1324e+006
20926	2.3053e+006
20927	4.6706e+006
20927	5.3232e+006
20928	4.7857e+006
20928	5.7707e+006
20929	2.4727e+006
20929	4.1493e+006
20930	4.1688e+006
20930	2.5864e+006
20931	4.4131e+006
20931	2.3073e+006
20932	5.9935e+006
20932	3.319e+006
20933	3.3506e+005
20933	6.8511e+005
20934	3.4349e+006
20934	1.9073e+006
20935	3.8128e+006
20935	2.4598e+006
20936	4.8945e+006
20936	2.4203e+006
20937	5.1536e+006
20937	5.4629e+006
20938	2.9353e+006
20938	3.1325e+006
20939	3.3451e+006
20939	4.7276e+006
20940	5.0646e+006
20940	5.5196e+006
20941	4.9013e+006
20941	2.3742e+006
20942	4.3736e+006
20942	2.9102e+006
20943	3.5833e+006
20943	3.335e+006
20944	4.0116e+006
20944	3.0552e+006
20945	4.8283e+006
20945	4.9751e+006
20946	2.5919e+006
20946	8.2442e+005
20947	3.1775e+006
20947	5.4489e+006
20948	2.5327e+006
20948	3.9677e+006
20949	2.9834e+006
20949	3.528e+006
20950	6.5263e+006
20950	3.8573e+006
20951	5.0176e+006
20951	4.4809e+006
20952	3.9787e+006
20952	3.1748e+006
20953	5.5955e+006
20953	4.4999e+006
20954	9.4995e+005
20954	8.1465e+005
20955	5.9103e+006
20955	4.8768e+006
20956	2.949e+006
20956	2.011e+006
20957	3.0934e+006
20957	2.2514e+006
20958	3.2708e+006
20958	5.0007e+006
20959	2.6168e+006
20959	4.9742e+006
20960	2.5129e+006
20960	5.0394e+006
20961	1.997e+006
20961	3.31e+006
20962	4.6568e+006
20962	4.5568e+006
20963	4.1185e+006
20963	4.2346e+006
20964	3.5523e+006
20964	3.3559e+006
20965	2.7275e+006
20965	5.5649e+006
20966	3.277e+006
20966	1.4795e+006
20967	1.8099e+006
20967	3.4991e+006
20968	2.8864e+006
20968	2.6703e+006
20969	2.9312e+006
20969	1.2472e+006
20970	3.1044e+006
20970	3.9439e+006
20971	1.6525e+006
20971	1.2357e+006
20972	1.5354e+006
20972	1.6705e+006
20973	2.2107e+006
20973	1.714e+006
20974	1.1267e+006
20974	2.0338e+006
20975	1.0335e+006
20975	1.4444e+006
20976	6.6699e+005
20976	7.1398e+005
20977	2.3561e+005
20977	6.2311e+005
20978	0.
20978	0.
20979	0.
20979	0.
20980	0.
20980	0.
20981	0.
20981	0.
20982	0.
20982	0.
20983	0.
20983	0.
20984	0.
20984	0.
20985	0.
20985	0.
20986	0.
20986	0.
20987	0.
20987	0.
20988	0.
20988	0.
20989	0.
20989	0.
20990	0.
20990	0.
20991	0.
20991	0.
20992	0.
20992	0.
20993	0.
20993	0.
20994	0.
20994	0.
20995	0.
20995	0.
20996	2.8911e+006
20996	3.3627e+006
20997	2.2755e+006
20997	3.1501e+006
20998	2.232e+006
20998	1.6468e+006
20999	2.1679e+006
20999	1.4893e+006
21000	2.4687e+006
21000	1.6808e+006
21001	2.1677e+006
21001	1.5088e+006
21002	3.2039e+006
21002	3.4161e+006
21003	3.2436e+006
21003	3.8316e+006
21004	1.8811e+006
21004	2.5829e+006
21005	2.2264e+006
21005	3.1863e+006
21006	8.1503e+005
21006	2.7138e+006
21007	1.2798e+006
21007	2.8007e+006
21008	3.5611e+006
21008	2.0917e+006
21009	2.2587e+006
21009	3.0665e+006
21010	2.8202e+006
21010	1.8145e+006
21011	2.2952e+006
21011	2.2394e+006
21012	2.3437e+006
21012	2.0783e+006
21013	2.6395e+006
21013	2.6327e+006
21014	9.9526e+005
21014	2.9342e+005
21015	1.6205e+006
21015	7.4948e+005
21016	8.9279e+005
21016	1.3543e+006
21017	1.1972e+006
21017	2.59e+006
21018	4.6215e+006
21018	5.2221e+006
21019	2.7047e+006
21019	3.1963e+006
21020	5.7237e+006
21020	2.8404e+006
21021	4.25e+006
21021	2.7647e+006
21022	4.5891e+006
21022	4.5182e+006
21023	3.0469e+006
21023	5.0746e+006
21024	3.6353e+006
21024	4.2539e+006
21025	3.2629e+006
21025	2.1715e+006
21026	3.0085e+006
21026	5.1527e+006
21027	1.7421e+006
21027	1.287e+006
21028	1.662e+006
21028	2.2351e+006
21029	1.6965e+006
21029	1.1814e+006
21030	1.8545e+006
21030	2.1082e+006
21031	1.1256e+006
21031	1.6217e+006
21032	1.1877e+006
21032	3.0058e+006
21033	1.8266e+006
21033	1.9665e+006
21034	1.9279e+006
21034	4.4069e+005
21035	5.0507e+006
21035	3.5704e+006
21036	3.3272e+006
21036	4.4013e+006
21037	3.3788e+006
21037	3.8256e+006
21038	1.718e+006
21038	2.6013e+006
21039	5.0705e+006
21039	1.8133e+006
21040	1.8823e+006
21040	2.0122e+006
21041	1.6456e+006
21041	2.2536e+006
21042	3.2036e+006
21042	2.5976e+006
21043	1.1345e+006
21043	8.5015e+005
21044	1.1526e+006
21044	1.6473e+006
21045	1.2647e+006
21045	1.2293e+006
21046	1.5836e+006
21046	1.2101e+006
21047	2.7846e+006
21047	3.2364e+006
21048	2.4519e+006
21048	1.9827e+006
21049	4.5988e+006
21049	4.611e+006
21050	4.4738e+006
21050	4.6896e+006
21051	3.6444e+006
21051	4.6527e+006
21052	4.1035e+006
21052	2.1596e+006
21053	3.7794e+006
21053	3.1664e+006
21054	2.9834e+006
21054	2.4011e+006
21055	2.2722e+006
21055	1.7232e+006
21056	1.0742e+006
21056	1.7177e+006
21057	3.1054e+006
21057	1.7564e+006
21058	1.3495e+006
21058	1.9063e+006
21059	1.8023e+006
21059	2.3216e+006
21060	9.3429e+005
21060	1.6878e+006
21061	3.3525e+006
21061	1.7177e+006
21062	4.0533e+006
21062	4.0279e+006
21063	3.1166e+006
21063	3.9259e+006
21064	3.3821e+006
21064	6.135e+005
21065	4.1414e+006
21065	2.0416e+006
21066	2.2225e+006
21066	4.3795e+006
21067	2.7206e+006
21067	2.7779e+006
21068	2.4881e+006
21068	3.8948e+006
21069	1.5428e+006
21069	3.1067e+006
21070	3.2906e+006
21070	1.7659e+006
21071	2.1014e+006
21071	2.0752e+006
21072	1.363e+006
21072	1.3965e+006
21073	1.1141e+006
21073	1.5177e+006
21074	1.1492e+006
21074	1.4191e+006
21075	2.337e+006
21075	1.7979e+006
21076	1.7896e+006
21076	1.5247e+006
21077	2.5912e+006
21077	1.5609e+006
21078	1.7173e+006
21078	1.8677e+006
21079	1.9144e+006
21079	2.1993e+006
21080	6.8314e+005
21080	1.4807e+006
21081	2.0927e+006
21081	2.1419e+006
21082	1.7142e+006
21082	1.724e+006
21083	1.669e+006
21083	7.9436e+005
21084	1.5755e+006
21084	1.4648e+006
21085	1.0759e+006
21085	7.4883e+005
21086	4.2186e+005
21086	7.7681e+005
21087	8.6355e+005
21087	1.0844e+006
21088	2.1984e+006
21088	1.4088e+006
21089	9.7817e+005
21089	1.7161e+006
21090	7.4218e+005
21090	1.4265e+006
21091	7.2338e+005
21091	5.673e+005
21092	5.9132e+005
21092	4.8016e+005
21093	0.
21093	0.
21094	0.
21094	0.
21095	0.
21095	0.
21096	0.
21096	0.
21097	0.
21097	0.
21098	0.
21098	0.
21099	0.
21099	0.
21100	0.
21100	0.
21101	0.
21101	0.
21102	2.1698e+006
21102	3.883e+006
21103	2.7462e+006
21103	4.0427e+006
21104	6.4201e+005
21104	1.3986e+006
21105	1.0343e+006
21105	1.9676e+006
21106	2.8959e+006
21106	2.9073e+006
21107	2.0963e+006
21107	1.8682e+006
21108	2.531e+006
21108	2.306e+006
21109	3.4658e+006
21109	1.5887e+006
21110	2.3988e+006
21110	3.4098e+006
21111	1.7975e+006
21111	5.2709e+005
21112	1.2869e+006
21112	2.3368e+006
21113	2.2918e+006
21113	1.1205e+006
21114	1.9384e+006
21114	1.1614e+006
21115	2.8784e+006
21115	9.7714e+005
21116	3.429e+006
21116	2.2583e+006
21117	2.5966e+006
21117	3.2051e+006
21118	2.1685e+006
21118	1.8354e+006
21119	2.4437e+006
21119	1.3723e+006
21120	1.9778e+006
21120	2.5751e+006
21121	2.8445e+006
21121	1.743e+006
21122	1.4765e+006
21122	1.3342e+006
21123	2.5242e+006
21123	1.5023e+006
21124	2.2216e+006
21124	2.3465e+006
21125	3.283e+006
21125	1.59e+006
21126	2.3604e+006
21126	2.4048e+006
21127	7.6804e+005
21127	6.7849e+005
21128	2.8709e+006
21128	1.3747e+006
21129	1.6781e+006
21129	1.2674e+006
21130	3.433e+006
21130	2.4658e+006
21131	1.2094e+006
21131	1.109e+006
21132	1.9011e+006
21132	1.7478e+006
21133	7.7844e+005
21133	1.1304e+006
21134	1.3833e+006
21134	7.1429e+005
21135	8.8086e+005
21135	1.613e+006
21136	2.1487e+006
21136	3.9386e+006
21137	1.4862e+006
21137	2.0818e+006
21138	1.4639e+006
21138	1.1295e+006
21139	1.2294e+006
21139	1.8259e+006
21140	1.5037e+006
21140	2.3707e+006
21141	2.0344e+006
21141	2.2729e+006
21142	2.0953e+006
21142	1.9555e+006
21143	7.4481e+005
21143	1.0699e+006
21144	0.
21144	0.
21145	0.
21145	0.
21146	0.
21146	0.
21147	0.
21147	0.
21148	0.
21148	0.
21149	0.
21149	0.
21150	0.
21150	0.
21151	0.
21151	0.
21152	0.
21152	0.
21153	0.
21153	0.
21154	0.
21154	0.
21155	0.
21155	0.
21156	0.
21156	0.
21157	0.
21157	0.
21158	0.
21158	0.
21159	0.
21159	0.
21160	0.
21160	0.
21161	0.
21161	0.
21162	0.
21162	0.
21163	0.
21163	0.
21164	0.
21164	0.
21165	0.
21165	0.
21166	0.
21166	0.
21167	0.
21167	0.
21168	3.5534e+006
21168	3.5299e+006
21169	5.3075e+006
21169	5.001e+006
21170	5.0255e+005
21170	9.9499e+005
21171	4.9642e+006
21171	3.3914e+006
21172	4.4551e+006
21172	1.2269e+006
21173	1.6598e+006
21173	1.3391e+006
21174	1.953e+006
21174	7.293e+005
21175	2.6259e+006
21175	2.0786e+006
21176	5.1664e+005
21176	6.9502e+005
21177	1.0403e+006
21177	1.0993e+006
21178	1.3037e+006
21178	1.2041e+006
21179	2.9774e+006
21179	2.9819e+006
21180	5.1254e+005
21180	8.2885e+005
21181	4.723e+005
21181	7.3605e+005
21182	8.6121e+005
21182	7.8965e+005
21183	1.1058e+006
21183	9.4793e+005
21184	3.0087e+006
21184	2.1267e+006
21185	3.969e+005
21185	8.0356e+005
21186	2.6489e+006
21186	3.3483e+006
21187	2.2179e+006
21187	2.5303e+006
21188	3.738e+006
21188	2.7704e+006
21189	3.5284e+006
21189	7.1298e+006
21190	4.5707e+006
21190	2.3908e+006
21191	4.6181e+006
21191	3.938e+006
21192	2.1765e+006
21192	1.5929e+006
21193	2.8273e+006
21193	2.3221e+006
21194	1.4987e+006
21194	1.3853e+006
21195	1.0406e+006
21195	1.2858e+006
21196	1.0337e+006
21196	1.0752e+006
21197	1.4296e+006
21197	1.0339e+006
21198	1.3005e+006
21198	1.7402e+006
21199	2.3103e+006
21199	3.7995e+006
21200	2.3407e+006
21200	2.8517e+006
21201	2.8249e+006
21201	3.8903e+006
21202	2.5445e+006
21202	2.1036e+006
21203	1.1805e+006
21203	2.2089e+006
21204	1.6065e+006
21204	1.3565e+006
21205	1.3879e+006
21205	1.0363e+006
21206	9.1687e+005
21206	1.4652e+006
21207	8.6946e+005
21207	8.4092e+005
21208	2.4589e+006
21208	6.9004e+005
21209	4.0258e+006
21209	2.9323e+006
21210	1.8917e+006
21210	1.6371e+006
21211	2.7612e+006
21211	3.5743e+006
21212	1.8191e+006
21212	5.7329e+006
21213	2.7573e+006
21213	3.4255e+006
21214	2.2733e+006
21214	3.0513e+006
21215	2.1094e+006
21215	2.9042e+006
21216	1.405e+006
21216	1.2433e+006
21217	3.975e+006
21217	1.3889e+006
21218	1.139e+006
21218	1.7396e+006
21219	1.2115e+006
21219	1.3485e+006
21220	2.6629e+006
21220	3.4723e+006
21221	1.8722e+006
21221	2.3308e+006
21222	3.0243e+006
21222	3.184e+006
21223	1.5536e+006
21223	1.8817e+006
21224	3.3038e+006
21224	3.2685e+006
21225	3.1288e+006
21225	4.1628e+006
21226	2.4269e+006
21226	1.9684e+006
21227	2.6381e+006
21227	2.6441e+006
21228	1.7529e+006
21228	7.8075e+005
21229	1.5034e+006
21229	8.9887e+005
21230	1.2089e+006
21230	2.1217e+006
21231	1.8912e+006
21231	1.2186e+006
21232	2.3492e+005
21232	4.7972e+005
21233	1.9135e+006
21233	3.9976e+006
21234	3.4946e+006
21234	3.0026e+006
21235	2.0663e+006
21235	2.8445e+006
21236	4.7104e+006
21236	3.2822e+006
21237	1.8326e+006
21237	4.8904e+006
21238	3.1844e+006
21238	3.5365e+006
21239	2.9662e+006
21239	4.2018e+006
21240	3.3174e+006
21240	2.2796e+006
21241	4.947e+006
21241	3.2869e+006
21242	2.6241e+006
21242	2.4448e+006
21243	2.2015e+006
21243	1.8616e+006
21244	1.3076e+006
21244	1.145e+006
21245	2.0223e+006
21245	1.6443e+006
21246	5.0483e+006
21246	1.9173e+006
21247	1.2726e+006
21247	9.1051e+005
21248	1.3613e+006
21248	8.8947e+005
21249	1.3538e+006
21249	1.5581e+006
21250	9.8645e+005
21250	4.9661e+005
21251	3.6412e+006
21251	2.169e+006
21252	1.5426e+006
21252	3.5944e+006
21253	3.6371e+006
21253	1.1679e+006
21254	3.581e+006
21254	2.228e+006
21255	1.7686e+006
21255	5.1176e+005
21256	3.1594e+006
21256	4.2071e+006
21257	1.8935e+006
21257	1.159e+006
21258	1.7321e+006
21258	9.4599e+005
21259	2.1916e+006
21259	1.0884e+006
21260	2.7905e+006
21260	3.1822e+006
21261	2.7186e+006
21261	4.1458e+006
21262	4.0449e+006
21262	1.2589e+006
21263	2.1227e+006
21263	1.4748e+006
21264	4.3669e+006
21264	1.9752e+006
21265	2.376e+006
21265	4.0118e+006
21266	3.4487e+006
21266	3.5399e+006
21267	1.7757e+006
21267	6.1043e+005
21268	1.7074e+006
21268	5.5817e+005
21269	8.5315e+005
21269	1.1152e+006
21270	3.8632e+006
21270	6.0976e+006
21271	2.603e+006
21271	2.3321e+006
21272	1.4093e+006
21272	1.9662e+006
21273	1.118e+006
21273	2.4668e+006
21274	2.3187e+006
21274	1.5768e+006
21275	1.3531e+006
21275	9.6592e+005
21276	5.3463e+005
21276	1.7577e+006
21277	3.1779e+006
21277	2.7951e+006
21278	1.982e+006
21278	1.8868e+006
21279	5.8211e+005
21279	2.001e+006
21280	2.5041e+006
21280	4.2947e+006
21281	1.2365e+006
21281	3.9979e+006
21282	2.7225e+006
21282	1.9768e+006
21283	2.4487e+006
21283	2.4232e+006
21284	2.3026e+006
21284	6.7109e+005
21285	1.6461e+006
21285	1.0856e+006
21286	8.6459e+005
21286	1.6481e+006
21287	7.4358e+005
21287	2.0916e+006
21288	0.
21288	0.
21289	0.
21289	0.
21290	2.429e+006
21290	1.2808e+006
21291	2.2898e+006
21291	3.451e+006
21292	3.2326e+006
21292	2.2289e+006
21293	3.2348e+006
21293	1.6196e+006
21294	6.4497e+005
21294	3.0315e+006
21295	3.3857e+006
21295	1.9439e+006
21296	3.5667e+006
21296	7.1509e+005
21297	3.9325e+006
21297	7.0201e+005
